#B3LYP/6-31+G(d) OPT FREQ

1008, Energy =      0.00000000 au

0 1
  C     -1.30028241      3.99325020      4.27294319
  C     -1.22805591      2.99056169      3.30553939
  C     -0.01153958      2.70632690      2.68499838
  C      1.13280851      3.42466691      3.03173695
  C      1.06068084      4.42737360      3.99912929
  C     -0.15588135      4.71154985      4.61962832
  H     -2.25932235      4.21722102      4.76204674
  H     -2.13037956      2.42446394      3.03243331
  H      2.09199216      3.20085482      2.54274163
  H      1.96284197      4.99357377      4.27237911
  H     -0.21276818      5.50183224      5.38208917
  C      0.06813066      1.59953310      1.61716878
  C      0.13027344      0.73623393      0.78426168
  H      0.18562873     -0.03277217      0.04232811
  C      0.68513817     10.71156483      3.47106161
  C      0.68510551      9.72500268      2.48456977
  C      0.00000698      8.52826943      2.69490776
  C     -0.68508758      8.31794805      3.89164621
  C     -0.68511227      9.30445131      4.87819695
  C      0.00001494     10.50116536      4.66778086
  H      1.22523955     11.65491081      3.30513486
  H      1.22529261      9.89113606      1.54125691
  H     -1.22527782      7.37463930      4.05779268
  H     -1.22521051      9.13853766      5.82154702
  H      0.00001808     11.27870729      5.44531379
  C      0.00000258      7.43931871      1.60596963
  C     -0.00000085      6.58993713      0.75659788
  H     -0.00000390      5.83332849     -0.00000200
  C     -1.16939967     15.62725605      4.38873918
  C     -1.16937274     14.64072613      3.40221511
  C      0.00005284     14.36161829      2.69488551
  C      1.16950045     15.06892851      2.97395020
  C      1.16957143     16.05547635      3.96045634
  C      0.00009689     16.33452658      4.66774626
  H     -2.09132308     15.84718674      4.94626097
  H     -2.09146518     14.08332033      3.18247468
  H      2.09157554     14.84915406      2.41652911
  H      2.09151219     16.61298286      4.18035302
  H      0.00011424     17.11207337      5.44527432
  C      0.00002853     13.27266075      1.60595421
  C      0.00000957     12.42327385      0.75658778
  H     -0.00000732     11.66666048     -0.00000736
  C      1.04318690     22.10527852      3.74404751
  C      1.04317485     21.11873765      2.75753439
  C     -0.00008687     20.19491041      2.69491840
  C     -1.04338020     20.25748518      3.61871273
  C     -1.04345549     21.24399000      4.60526190
  C     -0.00015010     22.16778662      4.66781122
  H      1.86564830     22.83347747      3.79330561
  H      1.86579648     21.06969637      2.02943400
  H     -1.86597692     19.52935885      3.56963896
  H     -1.86594180     21.29321560      5.33343491
  H     -0.00017502     22.94532077      5.44535192
  C     -0.00005197     19.10597057      1.60596939
  C     -0.00002475     18.25659748      0.75658915
  H     -0.00000050     17.49999641     -0.00001829
  C     -0.98713406     27.01577628      4.66693968
  C     -0.98708801     26.02921667      3.68044531
  C     -0.00002803     26.02840121      2.69480619
  C      0.98702722     27.01404515      2.69552001
  C      0.98706381     28.00064599      3.68197315
  C     -0.00003749     28.00139218      4.66758424
  H     -1.76528849     27.01631357      5.44386839
  H     -1.76536674     25.25234878      3.68018048
  H      1.76530967     27.01370021      1.91865589
  H      1.76521450     28.77757849      3.68243032
  H     -0.00004122     28.77897157      5.44507971
  C     -0.00002281     24.93939803      1.60592053
  C     -0.00001873     24.08997553      0.75658969
  H     -0.00001510     23.33333045      0.00002627
  C     -1.64308479     32.95973649      4.24261268
  C     -1.38196199     31.95792730      3.30737780
  C     -0.14270657     31.90527077      2.66921965
  C      0.83550445     32.85431947      2.96617469
  C      0.57447448     33.85616618      3.90139529
  C     -0.66481448     33.90875455      4.53951446
  H     -2.62003101     33.00114135      4.74560825
  H     -2.15334605     31.20991883      3.07351559
  H      1.81256048     32.81310321      2.46327879
  H      1.34568072     34.60424698      4.13540142
  H     -0.87058347     34.69835152      5.27662006
  C      0.14547375     30.79943691      1.63690018
  C      0.37025441     29.93688649      0.83169097
  H      0.57048360     29.16854737      0.11443003
  C      4.74539587      3.60940844      4.61385927
  C      4.85865455      2.63245116      3.62431494
  C      5.89834525      2.69654773      2.69657175
  C      6.82483229      3.73750504      2.75823357
  C      6.71165592      4.71450858      3.74774165
  C      5.67192965      4.65034070      4.67545416
  H      3.92576183      3.55877298      5.34514506
  H      4.12809878      1.81196658      3.57599442
  H      7.64457911      3.78833939      2.02702048
  H      7.44206944      5.53504872      3.79624720
  H      5.58269655      5.42035393      5.45535544
  C      6.02331659      1.61814099      1.60431676
  C      6.12079423      0.77698371      0.75235784
  H      6.20762496      0.02770109     -0.00654662
  C      4.62576657      9.98588456      4.19679698
  C      4.62579535      8.99934237      3.21028518
  C      5.83338110      8.52830213      2.69489187
  C      7.04098864      9.04368417      3.16588860
  C      7.04106098     10.03022822      4.15239855
  C      5.83342466     10.50121888      4.66774414
  H      3.67375938     10.35712627      4.60300469
  H      3.67361435      8.59326915      2.83920912
  H      7.99315248      8.67257381      2.75980649
  H      7.99308534     10.43642704      4.52360596
  H      5.83344183     11.27876902      5.44526886
  C      5.83335706      7.43933991      1.60596524
  C      5.83333831      6.58994936      0.75660246
  H      5.83332160      5.83333274      0.00001057
  C      5.11659908     15.15428785      4.86186068
  C      5.11650118     14.16772351      3.87537102
  C      5.83364048     14.36174241      2.69476083
  C      6.55090770     15.54223358      2.50049069
  C      6.55106566     16.52885545      3.48692279
  C      5.83389632     16.33475913      4.66751312
  H      4.55123817     15.00122634      5.79249595
  H      4.55094643     13.23722142      4.02884821
  H      7.11636167     15.69551271      1.56989471
  H      7.11652739     17.45939688      3.33366324
  H      5.83399715     17.11234867      5.44499843
  C      5.83349927     13.27272502      1.60588939
  C      5.83338913     12.42329144      0.75656965
  H      5.83329102     11.66663648      0.00001611
  C      4.63350716     21.57495367      4.27434671
  C      4.63356214     20.58843646      3.28780992
  C      5.83331694     20.19490936      2.69493777
  C      7.03306698     20.78778281      3.08847740
  C      7.03311245     21.77430837      4.07500584
  C      5.83330743     22.16778265      4.66783352
  H      3.68767355     21.88508745      4.74163531
  H      3.68757666     20.12126238      2.97780767
  H      7.97905621     20.47779044      2.62130435
  H      7.97894232     22.24159799      4.38514950
  H      5.83330369     22.94531565      5.44537537
  C      5.83332219     19.10597114      1.60598715
  C      5.83332628     18.25659930      0.75660565
  H      5.83332992     17.49999936     -0.00000291
  C      4.67602903     27.26272139      4.41988484
  C      4.67609951     26.27621491      3.43333732
  C      5.83327628     26.02822768      2.69494934
  C      6.99043100     26.76663636      2.94297778
  C      6.99045740     27.75316336      3.92950477
  C      5.83323220     28.00109168      4.66785437
  H      3.76376206     27.45811797      5.00189168
  H      3.76369981     25.69428842      3.23806853
  H      7.90284806     26.57140005      2.36106761
  H      7.90270701     28.33518652      4.12493384
  H      5.83321483     28.77862103      5.44539989
  C      5.83330060     24.93929458      1.60599359
  C      5.83331958     24.08992675      0.75660809
  H      5.83333648     23.33333036     -0.00000403
  C      4.98081638     32.81962324      4.60801044
  C      5.02296231     31.88538327      3.57268902
  C      6.12732820     31.83630038      2.72196028
  C      7.18959868     32.72136053      2.90641221
  C      7.14754345     33.65563549      3.94170574
  C      6.04313428     33.70465481      4.79239737
  H      4.11018767     32.85821803      5.27857654
  H      4.18536475     31.18780843      3.42756412
  H      8.06036242     32.68294162      2.23593773
  H      7.98499501     34.35327778      4.08700868
  H      6.00995245     34.44099569      5.60838144
  C      6.17379950     30.80505191      1.57917119
  C      6.21004711     30.00067809      0.68779568
  H      6.24233561     29.28416128     -0.10622014
  C     12.66286702      4.53171081      3.94288515
  C     12.77980532      3.54315356      2.96536225
  C     11.70062120      2.70331886      2.69002274
  C     10.50446547      2.85190587      3.39209533
  C     10.38743192      3.84043419      4.36963610
  C     11.46666943      4.68023460      4.64491847
  H     13.51366056      5.19369354      4.15984603
  H     13.72292139      3.42629349      2.41208352
  H      9.65350912      2.19000704      3.17528943
  H      9.44444817      3.95746782      4.92301445
  H     11.37446624      5.45936079      5.41536631
  C     11.82975215      1.61214938      1.61100732
  C     11.93047430      0.76103717      0.76937528
  H     12.02019516      0.00288693      0.01966975
  C     10.94019276      9.32551185      4.85713241
  C     10.94021844      8.33900756      3.87058271
  C     11.66667798      8.52826445      2.69490805
  C     12.39314224      9.70393338      2.50563368
  C     12.39317739     10.69049481      3.49212625
  C     11.66668744     10.50116070      4.66778083
  H     10.36748420      9.17620450      5.78387673
  H     10.36741193      7.41230771      4.02012082
  H     12.96594504      9.85345772      1.57892932
  H     12.96588968     11.61723461      3.34280513
  H     11.66669117     11.27870275      5.44531364
  C     11.66667276      7.43931356      1.60597010
  C     11.66666868      6.58993184      0.75659848
  H     11.66666506      5.83332309     -0.00000127
  C     12.38214635     16.52963682      3.48633651
  C     12.38212249     15.54307186      2.49984748
  C     11.66665638     14.36161774      2.69490378
  C     10.95118417     14.16657895      3.87635709
  C     10.95114813     15.15308629      4.86290375
  C     11.66664419     16.33452057      4.66776998
  H     12.94618818     17.46093740      3.33245717
  H     12.94626193     15.69715514      1.56858672
  H     10.38704953     13.23531758      4.03045418
  H     10.38710149     14.99922076      5.79420370
  H     11.66663939     17.11206522      5.44530020
  C     11.66666310     13.27266322      1.60596946
  C     11.66666835     12.42327867      0.75660068
  H     11.66667302     11.66666739      0.00000345
  C     10.95224870     20.98644549      4.86306620
  C     10.95207453     19.99991725      3.87654046
  C     11.66716252     20.19499985      2.69486178
  C     12.38245459     21.37651867      2.49955921
  C     12.38268863     22.36310453      3.48602731
  C     11.66757069     22.16794446      4.66768616
  H     10.38850493     20.83254541      5.79454382
  H     10.38807719     19.06860487      4.03083172
  H     12.94629114     21.53063650      1.56812076
  H     12.94659323     23.29445611      3.33195383
  H     11.66773156     22.94550558      5.44519989
  C     11.66693723     19.10602226      1.60595055
  C     11.66676150     18.25661973      0.75659978
  H     11.66660497     17.49999242      0.00001859
  C     10.86482364     26.86894159      4.81363819
  C     10.86480649     25.88249768      3.82702812
  C     11.66678763     26.02811072      2.69504064
  C     12.46881949     27.16007358      2.54951567
  C     12.46890378     28.14657097      3.53607227
  C     11.66688907     28.00088255      4.66803783
  H     10.23257718     26.75404114      5.70594146
  H     10.23241604     24.99025941      3.94207049
  H     13.10116998     27.27518535      1.65725804
  H     13.10119021     29.03885485      3.42124124
  H     11.66692904     28.77837557      5.44561967
  C     11.66673165     24.93922849      1.60603403
  C     11.66668798     24.08990033      0.75660886
  H     11.66664908     23.33333929     -0.00003860
  C     10.97256845     32.64212706      4.87387244
  C     10.97264246     31.65562084      3.88732466
  C     11.66656295     31.86162984      2.69492910
  C     12.36043848     33.05405349      2.48893121
  C     12.36042257     34.04061824      3.47542045
  C     11.66647304     33.83453133      4.66779664
  H     10.42551224     32.47961310      5.81379879
  H     10.42553167     30.71571015      4.05004903
  H     12.90758470     33.21678661      1.54904265
  H     12.90744336     34.98056672      3.31291525
  H     11.66643760     34.61207545      5.44532738
  C     11.66661258     30.77267605      1.60599404
  C     11.66665128     29.92329208      0.75662468
  H     11.66668577     29.16668131      0.00002694
  C     16.45169187      3.67664456      4.59445181
  C     16.50285978      2.71675934      3.58327761
  C     17.58881724      2.68234858      2.70847201
  C     18.62365745      3.60772411      2.84470131
  C     18.57257832      4.56764662      3.85584459
  C     17.48657899      4.60199140      4.73061578
  H     15.59557651      3.70366975      5.28400162
  H     15.68688786      1.98740416      3.47616825
  H     19.47990369      3.58088171      2.15523527
  H     19.38840603      5.29706902      3.96313353
  H     17.44628566      5.35854564      5.52756687
  C     17.64524821      1.62279121      1.59233868
  C     17.68926436      0.79633644      0.72175466
  H     17.72847289      0.06015045     -0.05374060
  C     16.39412986      9.66444186      4.51826915
  C     16.39415608      8.67789014      3.53176687
  C     17.50003382      8.52836215      2.69483894
  C     18.60593162      9.36527942      2.84427807
  C     18.60599800     10.35185991      3.83075157
  C     17.50007397     10.50132487      4.66764525
  H     15.52230478      9.78221753      5.17796053
  H     15.52217173      8.01829107      3.41423430
  H     19.47790016      9.24767681      2.18467057
  H     19.47783891     11.01154289      3.94845720
  H     17.50008979     11.27889312      5.44515186
  C     17.50001165      7.43937456      1.60593769
  C     17.49999437      6.58996422      0.75659469
  H     17.49997897      5.83332998      0.00002043
  C     16.75339986     15.16987820      4.84615029
  C     16.75341430     14.18336547      3.85960902
  C     17.50004254     14.36163342      2.69490333
  C     18.24668761     15.52632138      2.51658997
  C     18.24673568     16.51289032      3.50307501
  C     17.50007618     16.33454561      4.66776017
  H     16.16479118     15.02923405      5.76424715
  H     16.16469552     13.26532396      4.00050454
  H     18.83539314     15.66718110      1.59853447
  H     18.83535762     17.43097321      3.36239507
  H     17.50008944     17.11209395      5.44528669
  C     17.50002398     13.27267372      1.60597419
  C     17.50000950     12.42328514      0.75660944
  H     17.49999660     11.66667027      0.00001580
  C     18.53143051     22.11898845      3.73043824
  C     18.53142372     21.13251321      2.74385949
  C     17.49991017     20.19476323      2.69510185
  C     16.46836023     20.24334906      3.63282072
  C     16.46828066     21.22978708      4.61943669
  C     17.49983739     22.16750703      4.66812707
  H     19.34463017     22.85816348      3.76877103
  H     19.34478585     21.09450199      2.00477983
  H     15.65502676     19.50424483      3.59467408
  H     15.65505232     21.26798443      5.35858718
  H     17.49980871     22.94498900      5.44571996
  C     17.49995033     19.10589648      1.60607976
  C     17.49998166     18.25658039      0.75664252
  H     17.50000957     17.50003010     -0.00001570
  C     16.29890290     27.41569288      4.26691578
  C     16.29897792     26.42918095      3.28037372
  C     17.49993100     26.02823678      2.69494394
  C     18.70085933     26.61368757      3.09593154
  C     18.70088486     27.60020722      4.08246588
  C     17.49988151     28.00109888      4.66785087
  H     15.35212463     27.73167395      4.72833714
  H     15.35206337     25.96785953      2.96449885
  H     19.64779338     26.29784693      2.63462669
  H     19.64764364     28.06164514      4.39848119
  H     17.49986201     28.77862747      5.44539714
  C     17.49995831     24.93930473      1.60598715
  C     17.49997961     24.08993771      0.75660083
  H     17.49999859     23.33334205     -0.00001202
  C     16.07392005     32.72954894      4.48717460
  C     16.37922668     31.73515121      3.55742623
  C     17.43744333     31.91442753      2.66646603
  C     18.19042863     33.08800809      2.70512249
  C     17.88519782     34.08246246      3.63483519
  C     16.82695832     33.90310879      4.52576738
  H     15.23970153     32.58810900      5.18946871
  H     15.78541649     30.81010039      3.52722704
  H     19.02472486     33.22966528      2.00289418
  H     18.47885079     35.00755504      3.66521073
  H     16.58635886     34.68687190      5.25854033
  C     17.77440387     30.81676400      1.64021445
  C     18.03723310     29.96058644      0.83973821
  H     18.27135505     29.19792411      0.12669327
  C     24.02979231      4.87254174      3.47682793
  C     24.02974661      3.88602306      2.49029261
  C     23.33337020      2.69484045      2.69502761
  C     22.63701032      2.49002648      3.88620631
  C     22.63699771      3.47648672      4.87280007
  C     23.33340328      4.66764990      4.66798720
  H     24.57878467      5.81151184      3.31531832
  H     24.57881627      4.04781392      1.55136354
  H     22.08792764      1.55109431      4.04793493
  H     22.08801839      3.31491486      5.81176708
  H     23.33341632      5.44515774      5.44555421
  C     23.33335194      1.60593747      1.60604175
  C     23.33333769      0.75659312      0.75663277
  H     23.33332501      0.00001766     -0.00000027
  C     22.57857577      9.34091682      4.84171694
  C     22.57861701      8.35443066      3.85514911
  C     23.33329859      8.52823107      2.69496737
  C     24.08797053      9.68842474      2.52120470
  C     24.08799247     10.67496675      3.50771669
  C     23.33327930     10.50108977      4.66787771
  H     21.98361820      9.20379468      5.75624732
  H     21.98356915      7.43993282      3.99245647
  H     24.68302599      9.82576187      1.60671628
  H     24.68294244     11.58950654      3.37062432
  H     23.33327170     11.27861702      5.44542531
  C     23.33330924      7.43930091      1.60600869
  C     23.33331755      6.58993536      0.75662091
  H     23.33332495      5.83334101      0.00000675
  C     22.51322551     15.21403149      4.80196592
  C     22.51321334     14.22758253      3.81536089
  C     23.33345599     14.36149062      2.69507380
  C     24.15374514     15.48175309      2.56124465
  C     24.15382599     16.46825455      3.54779718
  C     23.33354899     16.33427157      4.66806187
  H     21.86658248     15.10835871      5.68504512
  H     21.86642727     13.34456986      3.92118127
  H     24.80049457     15.58763568      1.67821260
  H     24.80050566     17.35131436      3.44218662
  H     23.33358565     17.11176819      5.44564011
  C     23.33340466     13.27260336      1.60607222
  C     23.33336462     12.42327128      0.75665097
  H     23.33332895     11.66670674      0.00000700
  C     21.93003688     21.33983101      4.31997602
  C     22.10163136     20.32715590      3.37577505
  C     23.30245878     20.22445714      2.67346527
  C     24.33175941     21.13432636      2.91523119
  C     24.16025829     22.14703526      3.85941289
  C     22.95939265     22.24966719      4.56168574
  H     20.98337602     21.42068579      4.87354493
  H     21.28999094     19.61004317      3.18543137
  H     25.27854256     21.05365581      2.36175537
  H     24.97173174     22.86422752      4.04990940
  H     22.82418618     23.04782674      5.30585605
  C     23.49181600     19.10663135      1.63125164
  C     23.63951465     18.23472723      0.81832499
  H     23.77108103     17.45805605      0.09418952
  C     24.04942343     28.19598721      3.48662079
  C     24.04933872     27.20945018      2.50010383
  C     23.33346133     26.02821066      2.69495071
  C     22.61763868     25.83335854      3.87622254
  C     22.61766346     26.81983796      4.86279712
  C     23.33357081     28.00105763      4.66787277
  H     24.61378949     29.12711861      3.33290654
  H     24.61375450     27.36338627      1.56898618
  H     22.05317978     24.90226636      4.03015451
  H     22.05334055     26.66611959      5.79395399
  H     23.33361396     28.77858027      5.44542500
  C     23.33340090     24.93928697      1.60598557
  C     23.33335377     24.08992647      0.75659274
  H     23.33331178     23.33333661     -0.00002591
  C     22.35442642     32.96916961      4.48179897
  C     22.38479893     32.03990100      3.44160264
  C     23.56352962     31.83351808      2.72482332
  C     24.71194022     32.55630075      3.04810468
  C     24.68166513     33.48559097      4.08828454
  C     23.50288723     33.69191727      4.80502080
  H     21.42517054     33.13177333      5.04676476
  H     21.47928469     31.47027810      3.18701422
  H     25.64134309     32.39385154      2.48324884
  H     25.58702450     34.05530141      4.34303395
  H     23.47898734     34.42433466      5.62485156
  C     23.59700152     30.80776446      1.57664691
  C     23.62310960     30.00767662      0.68106930
  H     23.64636605     29.29497767     -0.11668965
  C     28.23758866      3.62804301      4.72110132
  C     28.23773587      2.64158105      3.73450930
  C     29.16640223      2.69480358      2.69502929
  C     30.09496026      3.73439011      2.64199759
  C     30.09489080      4.72089782      3.62854387
  C     29.16618557      4.66760377      4.66799810
  H     27.50546919      3.58597915      5.54047580
  H     27.50558132      1.82218018      3.77662206
  H     30.82720017      3.77665331      1.82268074
  H     30.82692488      5.54035628      3.58663045
  H     29.16610018      5.44510797      5.44556876
  C     29.16652182      1.60590569      1.60603833
  C     29.16661510      0.75656533      0.75662537
  H     29.16669819     -0.00000659     -0.00001121
  C     28.04332907      9.69278896      4.48970598
  C     28.04350118      8.70628466      3.50315630
  C     29.16638392      8.52823896      2.69494430
  C     30.28914156      9.33658992      2.87314798
  C     30.28906345     10.32312060      3.85967129
  C     29.16613372     10.50110446      4.66784782
  H     27.15809800      9.83304674      5.12675898
  H     27.15822305      8.06920970      3.36294332
  H     31.17451825      9.19650149      2.23618259
  H     31.17419593     10.96028316      4.00005360
  H     29.16603511     11.27863440      5.44539273
  C     29.16652202      7.43930503      1.60598939
  C     29.16662974      6.58993655      0.75660455
  H     29.16672569      5.83333959     -0.00000699
  C     30.25676560     16.20801345      3.80826552
  C     30.25694808     15.22155011      2.82167488
  C     29.16612361     14.36140200      2.69510579
  C     28.07507102     14.48758103      3.55502186
  C     28.07479720     15.47401364      4.54164320
  C     29.16566735     16.33412848      4.66814828
  H     31.11672339     16.88601060      3.90794140
  H     31.11722713     15.12235778      2.14394160
  H     27.21497170     13.80966474      3.45552202
  H     27.21465962     15.57338204      5.21945739
  H     29.16548754     17.11160362      5.44574797
  C     29.16637544     13.27254480      1.60607418
  C     29.16657187     12.42323618      0.75662950
  H     29.16674684     11.66669253     -0.00003534
  C     30.24292919     22.08136423      3.88115896
  C     30.31886237     21.14019661      2.85407148
  C     29.32111758     20.17502781      2.71722460
  C     28.24740556     20.15089065      3.60735518
  C     28.17138567     21.09201685      4.63447420
  C     29.16917757     22.05715995      4.77125466
  H     31.02951518     22.84215989      3.98893306
  H     31.16544574     21.15951273      2.15252673
  H     27.46067534     19.39015339      3.49976369
  H     27.32492675     21.07288746      5.33610385
  H     29.10929619     22.79893078      5.58077252
  C     29.40498170     19.13617467      1.58349145
  C     29.47039572     18.32586919      0.69917958
  H     29.52866495     17.60406862     -0.08854412
  C     30.08244544     28.06501325      3.61764079
  C     30.08238850     27.07849666      2.63110338
  C     29.16669810     26.02816356      2.69500947
  C     28.25102629     25.96420288      3.74535547
  C     28.25100656     26.95067282      4.73193953
  C     29.16673530     28.00098060      4.66796146
  H     30.80433525     28.89294383      3.56715447
  H     30.80438243     27.12922674      1.80321885
  H     27.52901771     25.13632850      3.79604254
  H     27.52913141     26.90014348      5.55988027
  H     29.16674996     28.77849144      5.44552548
  C     29.16667757     24.93925638      1.60602781
  C     29.16666155     24.08990876      0.75662210
  H     29.16664729     23.33333038     -0.00000803
  C     29.94576632     33.99404760      3.52196875
  C     29.94569523     33.00755290      2.53540946
  C     29.16675229     31.86145726      2.69505039
  C     28.38784783     31.70170817      3.84115711
  C     28.38785370     32.68814820      4.82777106
  C     29.16682925     33.83422253      4.66805415
  H     30.55985047     34.89747313      3.39600932
  H     30.55985010     33.13381074      1.63201901
  H     27.77366264     30.79832641      3.96732971
  H     27.77379987     32.56210351      5.73120531
  H     29.16685957     34.61171296      5.44563857
  C     29.16670982     30.77257866      1.60604015
  C     29.16667668     29.92325333      0.75661215
  H     29.16664717     29.16669481     -0.00003783
  C     -1.17592570      3.97977095     16.36962369
  C     -1.17594141      2.99324249     15.38309815
  C      0.00014657      2.69494867     14.69490457
  C      1.17629949      3.38307064     14.99310754
  C      1.17641367      4.36961542     15.97961675
  C      0.00027646      4.66785243     16.66776984
  H     -2.10310144      4.21482703     16.91205948
  H     -2.10332089      2.45096634     15.14826747
  H      2.10362780      3.14816832     14.45077492
  H      2.10364060      4.91199476     16.21460119
  H      0.00032765      5.44539744     17.44529969
  C      0.00007488      1.60599363     13.60597077
  C      0.00001896      0.75660867     12.75660240
  H     -0.00003086     -0.00000296     12.00000552
  C      0.83048266     10.62835689     15.55428337
  C      0.83044851      9.64180111     14.56778516
  C     -0.00000138      8.52826498     14.69491815
  C     -0.83045187      8.40113782     15.80845450
  C     -0.83048725      9.38764166     16.79500465
  C     -0.00000260     10.50115512     16.66779704
  H      1.48517262     11.50611395     15.45395176
  H      1.48524666      9.74233706     13.69007595
  H     -1.48524955      7.52342878     15.90899505
  H     -1.48517768      9.28731465     17.67276188
  H     -0.00000308     11.27869476     17.44533226
  C     -0.00000070      7.43931745     13.60597683
  C     -0.00000018      6.58993836     12.75660259
  H      0.00000029      5.83333195     12.00000049
  C     -1.21190702     15.33946676     16.54337535
  C     -1.06715662     14.33476641     15.58624653
  C     -0.00804628     14.38233710     14.67971752
  C      0.90637270     15.43450809     14.73018217
  C      0.76170492     16.43925447     15.68727516
  C     -0.29743960     16.39161122     16.59377489
  H     -2.04684728     15.30185661     17.25794029
  H     -1.78820642     13.50544839     15.54674502
  H      1.74142211     15.47232041     14.01568636
  H      1.48260788     17.26863201     15.72695683
  H     -0.41149297     17.18349023     17.34812784
  C      0.15168595     13.27330723     13.62324306
  C      0.27627710     12.40826392     12.79919296
  H      0.38725988     11.63770419     12.06514901
  C     -1.10636848     21.33181395     16.51745984
  C     -1.10632683     20.34525789     15.53096191
  C      0.00001593     20.19499826     14.69477994
  C      1.10636336     21.03118822     14.84496073
  C      1.10641434     22.01777299     15.83142994
  C      0.00002527     22.16796961     16.66757762
  H     -1.97856017     21.45016640     17.17656314
  H     -1.97866570     19.68623229     15.41284456
  H      1.97869856     20.91300872     14.18594140
  H      1.97860971     22.67688258     15.94972025
  H      0.00002894     22.94554126     17.44508083
  C      0.00001078     19.10600591     13.60588345
  C      0.00000676     18.25659186     12.75654417
  H      0.00000318     17.49995430     11.99997322
  C     -1.15816865     27.26442277     16.41813422
  C     -1.15805473     26.27790680     15.43159620
  C     -0.00014253     26.02824747     14.69492660
  C      1.15770422     26.76499347     14.94466399