#B3LYP/6-31+G(d) OPT FREQ

16, Energy =  -7450.78388999 au

0 1
  O      2.20821900      1.99685400      0.73400100
  H      1.70924400      2.24571400     -0.06418400
  H      1.49852800      1.47044100      1.18166500
  O      2.89981200     -0.43826200     -0.46498700
  H      2.87195900      0.41211400      0.02325100
  H      2.30335800     -0.24243800     -1.20953100
  O     -3.10323900      1.47662500      0.09126300
  H     -2.45091600      1.98537600     -0.41323900
  H     -2.71688300      0.57716000      0.07810700
  O     -0.41429000      2.56775200     -0.64285600
  H     -0.53916200      2.18306000      0.24311800
  H     -0.21892500      1.76873500     -1.18825700
  I     -0.07691500     -0.92338600      0.06826000
  O      0.30737800      0.04115600     -1.48119300
  O     -1.91037200     -1.11439100      0.03178300
  O      0.21490500      0.28767500      1.44839900

