#B3LYP/6-31+G(d) OPT FREQ

16, Energy =  -7450.78710440 au

0 1
  O     -2.88833000     -2.01139600      0.48535000
  H     -1.92888800     -2.00665400      0.64969000
  H     -2.96474700     -1.16326700      0.01263400
  O      1.57858600     -1.71904000     -1.65623900
  H      1.38486500     -0.76464300     -1.79384000
  H      0.84135000     -1.93298600     -1.05381900
  O      2.63602900     -1.45651200      0.89461100
  H      1.67844200     -1.42861700      1.10807000
  H      2.56504200     -1.60810100     -0.07494500
  O      2.43647000      1.27806900      0.79617700
  H      2.67195700      0.32542600      0.90843100
  H      2.22887500      1.32160700     -0.15429800
  I     -0.44484400      0.66745200      0.12397400
  O     -2.16272800      0.61861800     -0.53054400
  O      0.64538700      0.88858300     -1.37005400
  O     -0.10793500     -1.11303500      0.60913300

