#B3LYP/6-31+G(d) OPT FREQ

16, Energy =  -7450.79459194 au

0 1
  O      2.46410700      0.84932100     -1.51380700
  H      1.55084200      0.49589900     -1.55472700
  H      2.91153600      0.19228900     -0.93147800
  O      3.25986200     -0.73152100      0.61639700
  H      2.54311100     -1.40054600      0.53969000
  H      2.82357000      0.04366700      1.03468500
  O      1.12608100     -2.45276200      0.11530100
  H      0.40421100     -2.21176500      0.73373900
  H      0.86166600     -1.90483200     -0.65178100
  O      2.05702600      1.73628600      1.09267300
  H      1.07692000      1.70876100      1.10982700
  H      2.22974900      1.72493400      0.12533800
  I     -1.32360000      0.10574000     -0.11580900
  O     -0.07025200     -0.39503500     -1.40279300
  O     -0.69628700      1.66758600      0.63375700
  O     -1.17189000     -1.20545200      1.17504300

