#B3LYP/6-31+G(d) OPT FREQ

16, Energy =  -7450.72430525 au

0 1
  O      4.73414900      0.27492700      0.97660800
  H      3.85366400      0.68843200      1.07076000
  H      4.42761700     -0.63708200      0.86654500
  O      3.38275800     -2.44588600     -0.34635500
  H      3.60153200     -2.55454500      0.58802300
  H      4.02184300     -3.00144000     -0.81233400
  O      2.08361500      0.42784900      0.29314400
  H      1.15275000      0.07363700      0.52156400
  H      2.38986000     -0.15956700     -0.40652400
  O      3.51087500      2.15347300     -1.20805400
  H      4.26409400      1.81660100     -0.68766400
  H      2.75834000      1.76384000     -0.70638200
  I     -1.73523100      0.16521600     -0.10189400
  O     -0.23354500     -0.45387400      0.86173800
  O     -3.02120500      0.48015600      1.18055800
  O     -2.26945100     -1.27993800     -1.13684300

