#B3LYP/6-31+G(d) OPT FREQ

16, Energy =  -7450.77797834 au

0 1
  O     -3.13499100      1.40287800     -1.32862500
  H     -2.20773700      1.35308100     -1.61577400
  H     -3.19963000      0.60542200     -0.76753100
  O     -1.23248600     -3.40876500      0.23331000
  H     -1.87643800     -2.70339000      0.41977600
  H     -0.40269400     -2.90050800      0.16060000
  O     -2.41983200     -0.80977600      0.35360600
  H     -1.69772300     -0.60718200     -0.27467300
  H     -2.17215200     -0.19008500      1.08006800
  O     -1.61206800      1.40243800      1.78225300
  H     -0.64989200      1.19627000      1.84313100
  H     -1.68469000      1.71887900      0.86477800
  I      1.23890300      0.23933500     -0.24524700
  O     -0.42135400      0.77583000     -0.90543400
  O      1.23037300     -1.59753100     -0.22157100
  O      1.11899400      0.84027400      1.49742600

