#B3LYP/6-31+G(d) OPT FREQ

16, Energy =  -7450.78346546 au

0 1
  O     -0.19382900      2.93227000      0.37441400
  H     -0.67570700      2.27837700      0.92930300
  H     -0.28226700      2.48478800     -0.48882400
  O      4.00415200     -0.53432800     -0.89253200
  H      3.72171600      0.38464800     -0.76742600
  H      3.55152200     -0.95002900     -0.12913700
  O      2.43989900     -1.01520600      1.42158700
  H      1.58683000     -1.38705100      1.11197800
  H      2.32887300     -0.07143000      1.18283200
  O      2.07682800      1.37563800      0.04193600
  H      1.50733600      0.90424500     -0.60237900
  H      1.45929700      2.07877100      0.34067000
  I     -1.22144900     -0.45385400     -0.21012700
  O     -0.23047400      0.63094700     -1.35594000
  O     -1.58649300      0.66124900      1.21896700
  O     -0.06768000     -1.75907900      0.38653400

