#B3LYP/6-31+G(d) OPT FREQ

16, Energy =  -7450.72971563 au

0 1
  O      2.95437600      0.75113800      0.42768400
  H      2.52513600      1.59891100      0.64794800
  H      2.24223500      0.09516400      0.46502500
  O     -1.50296100     -3.18714400      0.88244300
  H     -1.98523200     -2.33528700      0.93386900
  H     -0.59992700     -2.84958200      0.76869400
  O      5.52004400     -1.61544400     -0.36345600
  H      6.21311700     -2.25473800     -0.57716900
  H      4.71398200     -2.14427400     -0.29279100
  O      1.40639900      3.07368800      0.62715300
  H      1.05632300      3.71942000      1.25626800
  H      0.57687200      2.60982900      0.30766900
  I     -1.09356000      0.09634400     -0.42980300
  O      0.44290300     -0.77069200      0.13033000
  O     -0.94211400      1.86893100      0.09625500
  O     -2.47662300     -0.56368800      0.60834700

