#B3LYP/6-31+G(d) OPT FREQ

16, Energy =  -7450.75903619 au

0 1
  O      2.29084000     -2.14508300     -0.42280000
  H      1.36706600     -1.91860800     -0.61106900
  H      2.45901500     -1.46168300      0.24966800
  O     -3.40073500      0.05570000      0.83167500
  H     -3.00358200     -0.73622900      0.43418400
  H     -2.64786100      0.67473700      0.81473600
  O     -2.30705300     -1.76386100     -1.17812900
  H     -1.49034800     -1.21807800     -1.19342300
  H     -2.04284200     -2.58077400     -1.61624700
  O      0.14991200     -2.57335400      1.37789900
  H      0.32387500     -1.62275500      1.50362400
  H      0.99484900     -2.88840600      1.02574400
  I      0.52080700      0.98235900     -0.16255500
  O     -1.03530900      1.70636900      0.49447100
  O      0.03717000     -0.37499700     -1.33843800
  O      1.31980400      0.05607100      1.23634900

