#B3LYP/6-31+G(d) OPT FREQ

16, Energy =  -7450.77121041 au

0 1
  O     -3.04260400     -0.05064600      1.16374100
  H     -2.86753200     -0.45234200      0.28621100
  H     -2.21824700      0.40808100      1.38359100
  O     -2.47200500     -1.19856400     -1.35384300
  H     -2.09726300     -2.07482500     -1.18208200
  H     -1.65183800     -0.65781900     -1.50901800
  O      0.75287200      2.72194500     -1.11679200
  H      1.39097100      2.26300000     -0.52154800
  H      0.40550800      1.92931300     -1.57911500
  O     -1.17937200      2.12571400      0.80430500
  H     -0.49542000      2.33676000      0.12429900
  H     -1.95862300      1.89419900      0.27864700
  I      0.59959200     -0.47426500      0.27531900
  O      1.91984100      0.79951100      0.50910900
  O      1.40697000     -2.06416700     -0.14681900
  O     -0.17144300      0.10241400     -1.34381700

