#B3LYP/6-31+G(d) OPT FREQ

16, Energy =  -7450.73722746 au

0 1
  O     -1.83820200     -1.21206100      1.21815100
  H     -1.04627100     -0.72238400      1.49854600
  H     -1.43997900     -1.98887900      0.81678900
  O     -1.75742300      3.08651900      0.75057000
  H     -1.25510000      2.27263400      0.58600700
  H     -2.64772300      2.89246900      0.43704500
  O     -2.84566900      0.63723300     -1.04683700
  H     -1.86187100      0.51373500     -0.89827800
  H     -3.04647600      0.76751700     -0.10891300
  O     -4.43593800     -1.44340500     -0.19779700
  H     -3.81000800     -1.52692800      0.52775300
  H     -3.93774600     -0.81696100     -0.76955400
  I      1.51428200     -0.16627100     -0.29705100
  O     -0.27130700      0.19337300     -0.61503000
  O      1.37803100     -1.59109400      0.90275100
  O      2.11903700      1.25707900      0.69498000

