#B3LYP/6-31+G(d) OPT FREQ

16, Energy =  -7450.76571201 au

0 1
  O      4.25290500      0.08198900     -0.29465400
  H      4.75942200      0.81339400     -0.68374300
  H      3.39372300      0.13769800     -0.77803100
  O      1.84931400      0.23783700     -1.64691800
  H      1.29063600      1.01165500     -1.43309000
  H      1.22049800     -0.47931800     -1.33779900
  O      1.89624500     -2.08374300      0.99978000
  H      2.49599200     -1.41586500      0.63469500
  H      1.12703300     -1.96901100      0.41334600
  O      1.74713000      1.61809900      1.37978800
  H      0.95820400      1.70999800      0.79831500
  H      2.33985600      1.03343700      0.88323400
  I     -1.27699600     -0.02835800      0.20274800
  O     -0.46287400      1.58605100     -0.26527400
  O     -0.15434100     -1.28383700     -0.61209400
  O     -2.86644900     -0.07377400     -0.71595200

