#B3LYP/6-31+G(d) OPT FREQ

16, Energy =  -7450.77106825 au

0 1
  O      2.49830600     -0.93264100      0.87655300
  H      1.61960300     -0.81209700      1.31211700
  H      2.67835200      0.00352000      0.62775700
  O      1.17675300     -2.12003800     -1.11179400
  H      1.83028400     -2.15336600     -1.81922300
  H      1.68444600     -1.74256100     -0.33395900
  O     -1.22451200     -2.83075500      0.19826900
  H     -0.46950900     -2.75758900     -0.41223000
  H     -0.90417200     -2.27319900      0.93239200
  O      3.00864600      1.72090200      0.17134100
  H      2.02303600      1.76102000     -0.02246100
  H      3.34079000      1.57380000     -0.72399300
  I     -0.81382700      0.37348700     -0.16570100
  O     -0.11044600     -0.49277000      1.33776500
  O      0.59115700      1.40514800     -0.82086800
  O     -2.02365400      1.57585900      0.50145300

