#B3LYP/6-31+G(d) OPT FREQ

16, Energy =  -7450.77627975 au

0 1
  O     -2.19225500     -1.80402200      1.47134600
  H     -2.49018500     -1.22960000      0.74527700
  H     -1.49538200     -1.24723900      1.86357500
  O      0.67197400      2.56726200      0.88520500
  H      0.95910000      2.20582700      0.02305500
  H      0.46678200      1.73284200      1.35211100
  O      3.07535900     -0.33586200      0.82639100
  H      2.83968500      0.27096200      0.10379000
  H      2.30492300     -0.22720900      1.41169300
  O     -2.07506200      2.60563200     -0.05105000
  H     -2.02111600      1.69944300     -0.40290300
  H     -1.17573700      2.74374700      0.30121600
  I      0.12012600     -0.61759200     -0.45925400
  O      0.21500400     -0.20801800      1.36635100
  O      1.19718200      0.69752800     -1.20360700
  O     -1.61154800     -0.17457000     -0.92680300

