#B3LYP/6-31+G(d) OPT FREQ

5100, Energy =      0.00000000 au

0 1
  O     38.78679652     26.71316109     16.52671672
  H     38.92270304     27.61810503     16.81689925
  H     39.47890640     26.15378979     16.88683844
  O      3.29529640     12.36347286     40.21530539
  H      2.39671369     12.09801556     40.42430667
  H      3.42420587     13.28172383     40.46389644
  O     36.45480646      7.42028191     20.57845502
  H     36.04040382      6.87832812     21.25384864
  H     36.78713957      8.22866230     20.97553924
  O     46.67831158     32.90647605      6.38551104
  H     45.85348341     32.47263193      6.15521174
  H     47.20586809     32.32137176      6.93408838
  O     18.25893881     20.66847658     44.21770123
  H     17.62201918     20.88775933     43.53370675
  H     19.05457603     20.31495099     43.81324966
  O     33.23193470     10.64960368     11.26994942
  H     33.21145667     11.43422078     11.82272121
  H     33.69512690      9.94562959     11.72981187
  O     32.08737304     25.03475038      3.87307979
  H     32.08957248     25.91331208      4.26002231
  H     32.08279953     24.37674278      4.57208271
  O     30.73831262     32.60037169     43.36447515
  H     29.97844322     32.39467641     43.91391847
  H     31.42900851     32.98987728     43.90560784
  O      1.04179161     45.65313002     47.04300942
  H      1.13559906     46.43001438     46.48690613
  H      1.09908202     44.86255517     46.50142912
  O     29.66913690     47.49547526     28.98218562
  H     30.10345132     47.70381241     28.15178414
  H     29.86770662     46.58928816     29.22915729
  O     23.52872381     16.32854904     40.24368052
  H     24.22304498     15.79550905     39.84948957
  H     23.67990005     17.25415532     40.03874454
  O     46.84355323     13.66613021     47.44543618
  H     47.42486089     13.92348565     46.72609649
  H     46.50790381     12.78110358     47.28522590
  O     15.43418280     22.87449429     20.95620864
  H     15.59222625     22.37522457     21.76079054
  H     14.80679650     23.57897308     21.13424251
  O     26.47638455     27.03115970     32.30140411
  H     26.61648042     26.27527220     32.87638867
  H     26.30524529     27.81143451     32.83383492
  O     40.79265795      3.21618187      8.65913184
  H     41.53981104      2.62761546      8.78933105
  H     40.52574145      3.19608994      7.73720348
  O     14.24851545     33.19092326     35.19123687
  H     14.58664441     32.65086650     34.47317871
  H     13.93219505     34.02721637     34.84172974
  O     -0.01944356     33.69642769     31.76562373
  H      0.65287673     33.07003212     31.48774961
  H     -0.28223660     34.23741684     31.01737874
  O     34.72696989     35.73208377     29.43273399
  H     35.10074135     34.88642809     29.17435178
  H     34.80295058     35.83887842     30.38374494
  O     43.14276152      7.74517363      0.93815171
  H     43.08988283      7.92447573      1.87977510
  H     42.29883248      7.94425211      0.52614257
  O      0.81424535      0.93096736      2.63916792
  H      1.39485271      1.47191153      2.09891381
  H      0.22305517      0.43044916      2.07209147
  O     31.75130036     29.37517817     17.19115177
  H     31.99954542     29.78898971     16.36125153
  H     32.36732013     28.66711234     17.39304886
  O     39.07544905     22.54894729     18.04711913
  H     39.75312196     23.07175584     18.48189569
  H     38.54004544     22.10450617     18.70849275
  O      9.40761168     48.54977551     12.45486335
  H     10.13730937     47.97463638     12.69643375
  H      9.55193575     48.89672847     11.57146411
  O     48.95997207     14.01437089     21.16322425
  H     49.33200862     14.62676427     21.80210073
  H     49.58726213     13.87499623     20.45000487
  O     40.06318751     23.99214179      8.14278746
  H     39.45725644     24.49898045      8.68828002
  H     40.67375895     23.50988466      8.70513128
  O     10.38678013     14.27570709     10.96099402
  H     10.74950654     13.55152507     11.47634824
  H      9.90476783     14.87094533     11.53974748
  O     49.87137641     15.86282578     44.11265668
  H     49.11696091     16.16065824     43.59908771
  H     50.47977498     15.38736831     43.54222582
  O     37.24574785     29.57572564     33.65651759
  H     36.35734663     29.93851302     33.62952548
  H     37.31338712     28.94713194     34.37894052
  O     44.08624574      8.98786923     25.05970167
  H     43.86596993      9.37380113     24.20874036
  H     44.38550545      9.67763735     25.65657985
  O     19.57442639     10.99458898     28.81860168
  H     19.68704177     11.94025012     28.69759432
  H     20.24002074     10.66805333     29.42848580
  O     14.14757668      5.41717046     44.78745728
  H     13.27628008      5.08929954     45.02185629
  H     14.05908203      6.22289571     44.27308821
  O     31.99141747      9.33311665      9.49203611
  H     32.18345097      9.13897646     10.41237992
  H     32.77735231      9.68554909      9.06812833
  O     27.20494579     16.82763009     49.70568668
  H     27.92148023     17.37988758     50.02691881
  H     26.42902454     16.95726086     50.25590670
  O     39.69337327     33.07657125     15.35203738
  H     39.78907376     33.88841300     14.84869416
  H     40.42798175     32.99047670     15.96403257
  O     32.78818856      7.47622652      7.11625304
  H     32.62843304      8.35450820      7.46938115
  H     33.56945149      7.49227566      6.55860560
  O     23.13929586     49.11235237     40.26569825
  H     23.01078139     49.82678804     39.63747399
  H     24.06718733     48.86703432     40.28659037
  O     10.84232760     29.28080009     17.45129015
  H     11.32219182     29.51680871     18.24855439
  H     10.35150353     28.46946035     17.60102181
  O     36.90499095     30.93254686     27.05260468
  H     36.63844142     31.78132529     26.69187413
  H     36.57204142     30.22751403     26.49253921
  O     48.16259846     44.25340735      3.11893274
  H     48.01042184     43.45923957      3.63636855
  H     48.29183697     45.00004967      3.70835843
  O      2.55994540     17.10925295     18.67338695
  H      1.82793110     16.67533789     18.22900786
  H      2.46211572     18.06121740     18.59727491
  O     17.71645073     19.93227703     15.46939660
  H     18.55798491     20.20588958     15.84162825
  H     17.82994061     19.72457161     14.53903188
  O      8.56854671      7.85351872     18.07889987
  H      8.47824450      7.61742373     19.00502333
  H      9.48532660      8.06718060     17.89058303
  O     41.59031432     17.48351157     15.55145100
  H     41.98615302     16.79113506     15.01710420
  H     41.20627247     18.15081590     14.97802551
  O     23.90099662     36.09467996     15.63321056
  H     24.46906547     36.75080259     15.22284378
  H     23.71531228     36.35306109     16.53894812
  O     35.17298502     10.49104873      9.26907097
  H     35.48904081     10.51150816     10.17532157
  H     34.33966318     10.96394692      9.20955605
  O      8.11641794     34.74845592      4.39073131
  H      7.19057584     34.66131354      4.62910627
  H      8.40913801     35.64594191      4.56518438
  O     36.71517354     37.14288150     49.10236325
  H     36.44875946     37.70144555     49.83627723
  H     36.86137941     37.68498680     48.32368123
  O     42.67501704     33.65145970     28.08311059
  H     43.26841229     33.82012433     28.81866094
  H     41.78624718     33.92760264     28.31855318
  O     43.15144408     39.95042507     25.97839354
  H     42.29538266     39.52047024     25.91596207
  H     43.61702669     39.62647114     26.75291706
  O      4.24591857     35.57399556     35.10602415
  H      3.90301823     34.84665016     35.63041715
  H      5.00044399     35.96388793     35.55354547
  O     25.35537485      3.15045671     10.61723324
  H     26.08934633      3.09784965     11.23377065
  H     24.55031508      2.85960951     11.05184420
  O     46.01235396     48.40715022     34.61031169
  H     46.58858606     48.76750095     35.28832638
  H     45.62007543     47.58928196     34.92465079
  O      0.76307026     26.85314915     10.30835843
  H      0.18604151     26.12678715     10.55541322
  H      1.47036088     26.52442722      9.74864253
  O     30.48504389      1.47567745     20.89209340
  H     30.67132468      2.26916702     20.38487179
  H     30.82092173      1.58011134     21.78533449
  O     11.07503179     24.11279190     44.77081397
  H     10.22706055     24.56105585     44.73076122
  H     11.74353603     24.72016584     45.09608152
  O     21.59044872     37.30980749     14.48030291
  H     21.59107212     36.53574472     13.91247684
  H     22.43201788     37.37217732     14.93798331
  O      2.98017086     43.77243717     35.07534658
  H      3.89991927     43.72003549     34.80531524
  H      2.41962080     43.81463275     34.29714149
  O      1.71961959     19.73592934     36.25017326
  H      1.44956297     20.65656523     36.21702213
  H      2.30079168     19.59932315     37.00195631
  O     32.15151503     43.86280143     32.26297310
  H     32.39050712     44.79254909     32.25575703
  H     31.55087001     43.69197501     32.99211224
  O     34.62003447     18.53785364     41.97338022
  H     34.40701180     19.34158749     41.49355394
  H     34.66878136     17.80147280     41.35940383
  O      4.88808112     45.21099561     37.86057119
  H      4.39396194     45.71791626     38.50901370
  H      5.18233068     45.79255949     37.15573032
  O     13.55811682     37.83187086     39.01527345
  H     13.52282130     38.27456487     39.86637640
  H     13.82150755     38.45949620     38.33828619
  O     35.51153743     43.49997119     37.45702565
  H     34.67639210     43.03152499     37.52551243
  H     35.68005293     43.97565370     38.27368267
  O     45.67296979     39.40955406     43.76654820
  H     45.85800225     39.56793407     42.83795853
  H     45.90012239     38.50362985     43.98859106
  O     48.77985052      7.62101014     29.12663922
  H     48.90914535      7.39354203     28.20298284
  H     48.68698879      8.57265693     29.21234268
  O      5.70960862     48.47759628      5.91434486
  H      5.37513887     49.18720342      6.46768716
  H      6.00719402     47.75228928      6.46839602
  O     29.24990600     24.13917390      8.04702843
  H     29.22919946     23.52068939      8.78095496
  H     30.00266698     23.94357977      7.48427285
  O     10.40619415      4.87221462     16.62395306
  H     11.04659372      4.32572937     16.16260475
  H     10.84481974      5.64815336     16.98050135
  O      8.72500074      8.29841323      7.82008329
  H      8.64231087      7.37434392      7.57338855
  H      7.88836169      8.61259422      8.17069050
  O     44.90278772     50.07821985     40.42594206
  H     44.33513221     49.53604900     40.97858842
  H     45.46866427     50.61936331     40.98141257
  O      7.99662457     19.11959843     30.31847890
  H      8.37928669     19.24328722     29.44677322
  H      7.23307960     19.69299172     30.41757080
  O     42.09933668     23.44699712      4.90813944
  H     41.84185504     22.55238906      5.14261680
  H     41.33155772     24.02199213      4.94682036
  O     27.04038562     39.67301726     44.50946337
  H     26.97501008     40.61676238     44.67277655
  H     27.65708837     39.51407122     43.79112231
  O     20.24198779     47.11364956     33.96078348
  H     21.15409267     47.15271308     34.25766514
  H     19.77522299     47.89916151     34.25523484
  O     46.31570641     39.64743853      9.79065512
  H     47.00498488     39.01320702      9.58030876
  H     45.95493614     40.00986638      8.97819535
  O      4.39308405     44.53319280     46.01527530
  H      4.33963539     43.79826008     45.39995656
  H      4.45198684     45.35708863     45.52606560
  O     49.79916128     27.78215782      5.83059279
  H     49.80556561     26.95533857      5.34281322
  H     48.99244870     27.84308505      6.34741257
  O     43.38701822     23.53616838     22.83587043
  H     43.51077583     24.48283921     22.73537960
  H     43.15270479     23.33840157     23.74558770
  O     41.83924076     47.78253591     11.53774066
  H     41.71669340     47.66334316     10.59308451
  H     41.80993054     48.71852011     11.74910407
  O     25.05918783     43.40492325     30.69731319
  H     24.32224403     43.73525153     30.17827846
  H     25.68635156     42.96441232     30.11919920
  O     32.63859377     41.97153054      7.55070056
  H     33.10389143     42.80353876      7.43729673
  H     31.85835500     42.11191882      8.09210483
  O     11.77273717     35.36363118     24.92274375
  H     12.31496152     35.01740007     24.21020128
  H     10.86865386     35.46626071     24.61663829
  O      2.18155940      0.40833530     30.07908238
  H      2.58465448      1.22768479     29.78280417
  H      1.51541416      0.13154395     29.44564960
  O      7.90806171     36.69043991     28.87624502
  H      8.14158291     36.91217612     27.97186628
  H      7.16251577     36.08565823     28.87561875
  O      2.47661592     23.51552606     32.28254657
  H      2.20914623     24.43726475     32.30394163
  H      3.40426237     23.45652379     32.04256574
  O     47.39870240      4.17353680     30.51939615
  H     48.11142553      4.81605069     30.54770943
  H     47.36807673      3.69213244     31.34940333
  O     16.46251483     15.79948028     29.25374311
  H     15.96809269     15.72560108     28.43417700
  H     16.44741952     16.71050040     29.55609139
  O      8.59932796     26.44213628     14.41519297
  H      9.15954851     25.66542603     14.34830400
  H      7.81419413     26.31827821     13.87683988
  O     12.18821886     41.50828791     31.62670427
  H     12.75584814     40.76179594     31.83200100
  H     11.80693357     41.85340449     32.43733123
  O     13.65198957     34.54070788     16.80916761
  H     13.20963675     35.38683807     16.90910595
  H     13.74887852     34.33801982     15.87582411
  O     35.76634804     18.41192517     22.54615923
  H     35.07541697     18.36386937     23.21091852
  H     36.62402408     18.43746565     22.97666997
  O     46.30992314     25.71233201     16.09419070
  H     45.68142951     26.04283970     15.44815632
  H     46.96698661     25.16888325     15.65313397
  O     12.63648244     41.24585780     49.87836683
  H     11.73464899     41.11305676     50.17946535
  H     12.65944582     41.23073192     48.91876072
  O      5.41452620      6.09774349     40.36915432
  H      5.11215169      5.18682044     40.34943494
  H      6.33026101      6.12528194     40.65598420
  O     17.24157052     36.23088624      9.14345818
  H     17.92924371     36.31165391      8.47849037
  H     17.57643231     36.53682843      9.98954740
  O     33.71759878     50.22696418     46.79158679
  H     34.58651252     50.47067780     47.11898957
  H     33.28656158     49.64942732     47.42582501
  O     40.95680817      8.80836742      2.21809548
  H     41.54218302      9.47158891      1.84516981
  H     40.50420215      9.17349208      2.98192255
  O     26.62816640     27.22234334      2.56887704
  H     27.18157940     27.54295415      3.28479796
  H     26.01043485     27.90966337      2.30887913
  O     39.54482796     49.41003399     48.32788206
  H     38.91846101     49.83100371     47.73454494
  H     40.13585859     48.84681850     47.82283641
  O     46.91310475     40.91149604     37.27688280
  H     46.60080133     41.74232925     36.91111955
  H     46.57803800     40.18293436     36.74912514
  O     18.58692826     13.74438373     46.97817313
  H     18.45372351     14.62881914     47.32692877
  H     19.51567862     13.61832318     46.77049185
  O     34.79408666     30.22019581      8.84122185
  H     34.41914894     31.05664304      8.55595401
  H     34.24100001     29.49902873      8.53200799
  O     16.68609245     16.61756340     32.49218959
  H     17.32839290     16.65134742     33.20486678
  H     15.80053977     16.57649594     32.86057786
  O     14.08121352     40.10087990      6.89312538
  H     13.27343642     39.81432243      6.46071242
  H     13.95418210     40.97885149      7.26004349
  O     16.73590250     12.71706413      4.81569578
  H     15.81949809     12.46605911      4.67858474
  H     16.82499010     13.66836281      4.72245287
  O     21.85678214     18.38747950     45.78378119
  H     22.13317971     18.74638996     46.63017806
  H     22.60429120     18.37486513     45.18155939
  O     48.96948791     43.33647766     22.00798711
  H     48.04106617     43.09228884     22.01020030
  H     49.33272227     43.22325539     22.88937325
  O     49.44075455     31.27758401     29.21908298
  H     49.63157301     30.33677135     29.22681987
  H     49.51881291     31.62772885     30.10953538
  O     14.45028207     17.67834158     34.86626359
  H     13.86812814     17.33422547     34.18488197
  H     14.76440518     18.54851974     34.60991102
  O      3.87886843     23.19959779      7.60442235
  H      3.06041121     23.42067725      7.15403179
  H      4.58031013     23.08883637      6.95842588
  O      5.46536563     24.34118216     31.41650164
  H      5.76230576     23.50036225     31.06090576
  H      5.55950857     25.02323162     30.74751312
  O     10.45208117     43.23003057     22.68195894
  H     11.37347221     43.48631232     22.59854301
  H     10.06439711     43.13914079     21.80843726
  O     39.14420971     33.41824687     21.16604420
  H     39.02791543     34.31137075     20.83377114
  H     38.39632290     33.18243471     21.71981126
  O     35.19577311     43.46763850     14.01838947
  H     34.97541135     43.78202259     14.89827773
  H     34.44507387     42.99694823     13.64892863
  O     12.40695531     46.14984774     46.17592775
  H     11.70618454     46.56189952     46.68654860
  H     13.11094736     45.86988958     46.76551966
  O     34.60242996     44.34140144     49.56756553
  H     35.07376683     43.64605487     50.03225329
  H     33.71310338     44.41722344     49.92104717
  O     47.94183153      2.74889846     40.81313370
  H     47.24801701      2.46053494     41.41068529
  H     48.68756977      3.07556644     41.32182075
  O     40.94054003     25.48913109     24.36788385
  H     41.36029759     26.24217666     23.94559725
  H     41.29386386     24.67652679     23.99851069
  O     39.21566765      8.92591111     43.53225361
  H     39.02991412      9.76088101     43.09645446
  H     38.42738205      8.61900169     43.98613952
  O     24.28270076     45.11887660     13.72394326
  H     23.70275421     45.75386882     13.29727373
  H     25.03327407     45.57795760     14.10798018
  O      6.13120783     11.91541042     39.42544837
  H      6.21155660     12.03110415     38.47583843
  H      5.41823428     12.46663250     39.75623974
  O     29.55253973     25.71218688     39.69406627
  H     30.38739907     25.38166140     39.35441530
  H     28.83292063     25.38505412     39.14933466
  O     29.76778578     36.94517792     46.52981924
  H     30.59159065     36.90849715     47.02134754
  H     29.02882555     36.94760762     47.14262581
  O     17.94261983     42.62993458     30.36387838
  H     18.25826301     42.42757558     29.48012490
  H     18.30994288     41.99931523     30.98757143
  O     10.32934380      6.19330342     20.37314043
  H      9.86072537      6.01954741     19.55350294
  H     11.11243907      6.71741177     20.18964045
  O     20.53127271     24.57986330     21.90918760
  H     20.81210851     24.58609698     20.99120481
  H     21.16386020     25.06817430     22.44115136
  O     19.26501646      5.32573761      2.69326830
  H     19.90054289      5.36012039      3.41196433
  H     18.37462627      5.34388452      3.05170380
  O     32.28214394     21.92576911     10.42429855
  H     31.72130223     21.33672000      9.91432037
  H     33.15177860     21.96998293     10.02009476
  O     27.35595812     18.62796894     23.29264791
  H     26.76668897     18.65827997     22.53538763
  H     26.96143775     18.09189193     23.98443915
  O      3.75952476     33.95021151     10.37701656
  H      2.99676982     33.42258194     10.62483087
  H      3.87549019     33.91828780      9.42458132
  O     14.90823921     26.53219128     20.31180854
  H     14.37622894     27.00583987     20.95540940
  H     15.05119155     25.63234772     20.61420925
  O     22.02018616     46.68424328      0.47678242
  H     22.53108233     47.26723148     -0.08953010
  H     22.32944838     46.76487954      1.38201979
  O     28.21017717     28.40663431      4.94339121
  H     27.73515264     27.71808074      5.41439617
  H     28.26421092     29.19199286      5.49283848
  O      4.43052241     31.71706140      3.61183396
  H      3.50842338     31.81670955      3.36403639
  H      4.58016714     30.82682706      3.93846721
  O     17.38805206     28.34990182      7.53544281
  H     16.64604892     27.93980197      7.98583092
  H     18.03248825     28.64509158      8.18287235
  O      5.41706317     33.59536050     19.15097181
  H      6.26007177     33.85911911     18.77498258
  H      4.85388086     33.24190980     18.45851365
  O     27.64743295     39.99243544     16.30552308
  H     26.95267632     40.28314670     16.90083828
  H     28.35963003     39.59665351     16.81319619
  O     47.58170276     22.94423141     12.30606053
  H     47.84885711     23.71924508     11.80647833
  H     48.13685449     22.19954593     12.06347017
  O     19.39058463     28.64888515     22.82240462
  H     19.31548712     29.60519375     22.78453322
  H     19.84834716     28.33216699     22.04026456
  O     44.94322091     13.16758117     14.95455292
  H     45.33863465     14.01654612     14.74358729
  H     45.39596337     12.47380524     14.46947640
  O     26.00642451     25.72773355     28.11227083
  H     25.29660831     25.15359209     27.81541640
  H     26.41847288     25.35047969     28.89297287
  O     40.32805356      0.78227333     45.04734836
  H     40.97609944      0.16925376     44.69260400
  H     39.91513805      0.39805842     45.82418791
  O     48.81294299     29.81094432      6.69771053
  H     48.17862872     30.52128354      6.81880393
  H     49.10054716     29.48853974      7.55499644
  O     18.72971568     26.52819405     23.16301116
  H     19.18001006     25.88129496     22.61496322
  H     19.33738384     26.86583412     23.82508261
  O     33.36826085      5.00051971      2.00559153
  H     32.79163259      5.68294991      2.35685905
  H     33.53528178      4.34181502      2.68368602
  O     22.13751909      8.27689369     37.52402956
  H     22.86780972      7.75274464     37.86099154
  H     21.32844413      7.76165374     37.56308724
  O     27.42292108     19.05148511     33.05759117
  H     27.93035886     18.32384070     33.42452511
  H     26.68334671     18.70431351     32.55350623
  O      3.11751328     25.71960545     29.86183637
  H      2.20422110     25.99645897     29.96599740
  H      3.42486251     25.31572817     30.67671034
  O     37.72282534     42.68325052     33.98071405
  H     37.19995306     42.08744381     33.43921710
  H     38.47344431     43.00149632     33.47387011
  O     45.13524600     46.31331596      8.45897306
  H     46.06072843     46.52609145      8.31822904
  H     44.75320879     46.93910415      9.07868002
  O     34.79603640     42.19404750      6.44129322
  H     35.03243821     42.94904487      5.89751647
  H     34.55705505     41.45503498      5.87706950
  O     48.98685363      2.35299667     29.76699609
  H     48.29664990      2.04582501     30.35933415
  H     49.59467343      2.91844015     30.24910476
  O     34.32207100     16.65908028     21.80484153
  H     35.03271203     16.88459056     21.20008171
  H     33.88039563     15.86386293     21.49799915
  O     44.32838727     40.75296517      2.19835158
  H     44.55323515     41.56002969      2.66706290
  H     44.71047333     40.00002719      2.65518267
  O     41.25178246      5.42019495     23.35937611
  H     42.15558561      5.26791616     23.64494751
  H     41.17793197      5.23942692     22.41944578
  O      6.18208258     13.72783299     45.57381183
  H      6.25523921     13.22922811     44.75671864
  H      5.25944736     13.78505090     45.83279131
  O     15.85997419     34.24277260      5.59554561
  H     15.15407626     34.66889539      5.10388772
  H     15.70791690     33.29516409      5.61827632
  O     49.86576068     19.58501119     26.80307808
  H     48.92889253     19.45923819     26.63556920
  H     50.10009620     19.17335558     27.63807899
  O     50.52737356     41.81713636     32.06920541
  H     49.97177747     41.48597119     31.35980945
  H     50.75833726     42.73244916     31.89468248
  O     34.43998954     19.07196358     43.98704755
  H     34.73518929     18.18713501     44.21406188
  H     35.17474402     19.57148431     43.62343388
  O      0.49911051      5.37310894     24.15556811
  H      0.15490518      4.56035568     23.77800377
  H      0.98355085      5.85853076     23.48379195
  O      9.28448052     10.91405191     49.74540532
  H      9.28679590     10.39371411     50.55215387
  H      9.60840154     10.37832983     49.01761618
  O     42.98423123     33.07816000      0.34675964
  H     42.40723978     33.25061379     -0.40086363
  H     42.86539465     32.17211214      0.64096221
  O     30.30911063     48.23868818     20.69093429
  H     29.66584493     48.92995845     20.51786021
  H     29.85220253     47.41604427     20.88091320
  O      8.36406050      1.14638825     27.92583628
  H      7.46044396      0.89126372     28.12580781
  H      8.69970524      0.60214606     27.20977549
  O     12.18570757     19.25031678     33.15452348
  H     12.09361248     19.25252239     34.11009328
  H     12.75263387     19.97684631     32.88554502
  O     37.05488593     19.93780897     14.58311573
  H     37.67754208     19.45430976     14.03527650
  H     36.43355171     20.40867226     14.02290902
  O     36.42633613     45.03247965     10.88069274
  H     37.08957485     44.34857947     10.76239245
  H     36.85916791     45.87556091     11.03389404
  O     48.08037267     39.58294551     43.77266668
  H     48.28149649     38.90647347     43.12187117
  H     47.68463856     40.34054424     43.33558695
  O     28.20809282      3.15979117     16.84000618
  H     27.81450080      3.27438559     15.97193162
  H     28.36573349      4.01978181     17.23644725
  O     18.56500705     11.03311861     21.69589610
  H     19.51257202     11.15221430     21.79355292
  H     18.39324576     10.25194384     21.16498741
  O     10.71095377     15.32410130     35.50292934
  H     10.70617058     16.20441884     35.12002183
  H     10.22007826     14.72517817     34.93553855
  O     33.87364025     19.60159028     48.28235395
  H     34.18928484     18.72004416     48.49412015
  H     33.20227931     19.54588136     47.59841608
  O     27.27305340     42.58106883     28.76991436
  H     26.70618386     41.80908726     28.83551458
  H     28.19234751     42.30853776     28.81708599
  O     47.08424795     39.73842147      7.00935241
  H     47.27076508     40.54425888      6.52207689
  H     47.84489468     39.50555544      7.54674422
  O     40.31378043      6.22498413     45.26026840
  H     41.11500520      6.06834268     44.75519185
  H     40.33588562      5.70368478     46.06609615
  O     22.97281060      5.70386607      1.46507812
  H     22.62284749      5.02562150      2.04740975
  H     22.75621223      6.57069042      1.81622009
  O     49.84974217     45.08171612     47.75810783
  H     50.18171419     45.89572566     48.14383188
  H     49.01032059     44.85366410     48.16426505
  O     31.66768899     31.37595175     41.37248772
  H     30.78831252     31.44022029     40.99279498
  H     31.98749580     32.25441398     41.59072547
  O      1.52929381     33.91690673      7.49639409
  H      0.79705043     34.11038562      8.08629709
  H      2.30919315     33.70224282      8.01338193
  O     17.15921961     18.55368825     22.91516283
  H     17.67005470     17.75114002     23.04386344
  H     17.16094203     19.06809232     23.72570924
  O     15.14538920     40.94050983     49.29683863
  H     14.68535723     41.67032836     49.71795085
  H     14.51856849     40.41205034     48.79741257
  O     47.74009684     41.16383478     14.48413475
  H     46.96295557     41.71283265     14.61162117
  H     47.49236550     40.36040034     14.02075337
  O     48.95338772     40.67205113     10.56597405
  H     49.15877776     41.00674020     11.44198670
  H     48.12214919     41.04733958     10.26630575
  O     34.61607877     37.39204532     14.21679972
  H     34.87395453     37.15137550     15.10964804
  H     35.40075362     37.57572232     13.69512152
  O     11.48791709     29.80071248     33.50039849
  H     11.65583505     30.67473536     33.86024231
  H     11.57102497     29.14581026     34.19738929
  O     11.45680979     24.40045872     47.25383550
  H     11.08786671     24.66628662     48.09930373
  H     12.31539067     23.99397651     47.39243964
  O      4.67687733     35.96434617     10.59364672
  H      3.88880432     36.48601885     10.76216541
  H      5.04888637     35.66731566     11.42730261