#B3LYP/6-31+G(d) OPT FREQ

5100, Energy =      0.00000000 au

0 1
  O     17.45762182     27.98037033     35.74984041
  H     17.73175815     27.18949366     36.21990781
  H     16.67204051     27.78936848     35.23217227
  O     24.85264281     36.02255544      8.45947407
  H     25.33718091     36.63075945      7.89652584
  H     24.00791881     36.41099502      8.69854745
  O     39.61184147     33.05063397     35.60658979
  H     40.39332240     32.73209575     36.06421514
  H     39.41738458     32.47336721     34.86459949
  O      6.18236834     42.02583663     10.31747044
  H      6.84640003     42.59984328      9.92865392
  H      5.55856573     41.75307569      9.64066043
  O     18.34189810     44.22204847     22.64225888
  H     18.91983310     44.96231278     22.44326168
  H     18.80944605     43.58934704     23.19242960
  O     30.35691353     15.33820692     50.79334126
  H     30.17119600     14.83091329     49.99976570
  H     30.22608514     14.78376124     51.56604685
  O     34.11991744      7.50437698     22.26117534
  H     33.43530765      7.92947463     22.78290460
  H     34.10516807      7.85406657     21.36725160
  O     37.06026649     33.33422309      9.27355871
  H     36.95450894     33.15966553      8.33550487
  H     37.36227095     32.53743234      9.71573268
  O     43.14745761      9.85939445     45.37009728
  H     43.96954870      9.36705363     45.31207351
  H     42.43499170      9.33922247     44.99139761
  O      4.26024118     13.23333343      9.40019475
  H      4.95249043     13.70107087      8.92731774
  H      4.64364867     12.75522624     10.13912114
  O     46.71119115     25.75922963     21.13946648
  H     45.93783562     25.75802655     20.57067848
  H     47.50550658     25.75711652     20.60033891
  O     48.69982286     20.61125060     33.56299947
  H     49.55492527     21.02699929     33.43051211
  H     48.36194381     20.29786369     32.72084366
  O      7.66797908      5.01873941      7.58055890
  H      7.02491304      4.44282496      7.16057243
  H      7.59025214      4.94404589      8.53448730
  O     38.35913968     17.43759807     21.55094724
  H     39.14587867     17.30944715     21.01595275
  H     37.57950457     17.37630552     20.99415973
  O     23.32001582     36.12446297     34.44292970
  H     22.75111984     35.69422312     35.08546456
  H     24.21520597     36.16930630     34.78676640
  O     32.42608672     21.62502937     47.36064159
  H     32.03456152     20.85320352     47.77608458
  H     32.54610849     22.31573726     48.01647494
  O     11.35725513      5.58599447     31.69166002
  H     11.87218157      6.28425136     31.28070008
  H     11.49312650      5.60443532     32.64181733
  O      5.51491024     38.99292932     39.88139080
  H      5.73999369     39.80679932     39.42471470
  H      4.92985138     39.18935217     40.61673032
  O     21.25770238     42.81501900     47.73582395
  H     21.47459176     43.73228175     47.91799982
  H     21.96519220     42.24924150     48.05355653
  O     17.42859063     17.08347557     12.50273260
  H     17.41403415     17.87596927     13.04434303
  H     16.96336774     17.24933808     11.67953318
  O     23.30749116     34.15625169     42.36286469
  H     22.60063025     33.88915387     42.95498495
  H     23.09761985     35.01033925     41.97804204
  O     18.28529668     48.17308929      2.42265456
  H     19.17959452     48.12823291      2.76880378
  H     18.15181976     49.01876230      1.98834929
  O      5.87518596     14.16860717     14.69791968
  H      5.45830541     13.35064822     14.41728865
  H      5.22965212     14.71991780     15.14618596
  O     48.64995471      4.72656030     37.50779684
  H     47.98449834      5.23761869     37.04133447
  H     48.50867529      3.79122915     37.34410273
  O     21.21879632      4.63963416     48.68227945
  H     21.39562624      4.63905424     49.62585290
  H     22.02276395      4.85899968     48.20571379
  O     10.79370336     38.60536738     33.39654037
  H     11.36667129     39.30467876     33.07362961
  H     11.26129887     38.08640932     34.05505154
  O      8.83363533     45.68705156     31.75119717
  H      8.04616237     46.20172483     31.94250260
  H      9.11774783     45.85883983     30.85043700
  O     14.81456464     45.46169207     20.26727468
  H     15.54839100     45.12893706     20.78916833
  H     14.62577934     46.36806134     20.52115429
  O     49.33011666      0.76023584     10.64385492
  H     50.07218438      1.11767166     11.13698284
  H     49.65587539      0.19614033      9.93867586
  O     30.99974305      8.13227605     40.53732260
  H     30.05322556      7.97464761     40.56661314
  H     31.21029302      8.91517204     41.05146517
  O     27.10805840      2.36738185     44.52471474
  H     27.21138871      2.96703309     45.26723830
  H     27.44418531      2.78351618     43.72756299
  O     38.26916184      0.32893784     31.53473885
  H     37.73050984      1.09861185     31.73236463
  H     38.35948066      0.23670620     30.58345770
  O     27.31778221     43.17725910      3.52948412
  H     27.75258024     42.51368742      4.07006093
  H     27.79348946     44.00829637      3.59789221
  O     37.93466035     48.47051266      2.06737544
  H     38.70145234     47.95641264      2.33068364
  H     37.56683049     48.10621785      1.25892601
  O     33.79081602     41.53205450     10.78541822
  H     34.40077773     40.91317571     10.37733029
  H     33.51254062     42.18265976     10.13666895
  O     40.02707981      2.76136931     25.93820337
  H     39.49661265      3.33488099     25.38027063
  H     40.56024122      2.18287977     25.38803178
  O     43.84238209     46.34635736     28.52249805
  H     44.35633258     46.32794442     27.71187122
  H     43.07491149     46.91046143     28.40260032
  O     14.35489533     32.82791426     23.35662623
  H     13.51094254     32.37271473     23.40285482
  H     14.68453296     32.80105820     22.45539497
  O     25.76277894     24.84452301     25.26425760
  H     25.08863064     24.75018003     24.58733554
  H     25.42197788     25.38162263     25.98326987
  O     48.08441796     25.97807358     26.44954927
  H     47.25797356     25.69732521     26.04983687
  H     48.45831586     26.70001055     25.93905207
  O     41.79228585     48.34446188     49.44451155
  H     41.11010313     48.76637064     48.91704616
  H     42.37942039     47.84705436     48.87052653
  O     39.53734416     44.68781304     24.58814019
  H     40.05299766     44.13335511     25.17829091
  H     38.98308443     45.27719512     25.10488472
  O     20.57062053     46.88537911     48.37572056
  H     20.64687321     47.39067630     47.56303348
  H     19.80869228     47.19146937     48.87308772
  O     22.99555054      3.50584509     26.40068164
  H     22.21033775      3.75711100     26.89252136
  H     23.55241346      4.27688933     26.27031878
  O     33.88675717     26.81730755      2.32856095
  H     34.59712486     27.46264160      2.30571990
  H     33.27616915     27.03775104      3.03579990
  O     49.37563395      2.87770263     45.12101943
  H     49.58233402      2.93149362     44.18508053
  H     49.94801742      2.23013059     45.53890414
  O     34.56254772     14.28478150     40.38693650
  H     33.77227439     14.36588413     39.84796486
  H     35.32660819     14.16174181     39.81889351
  O     41.70963557      0.99305599     47.42987632
  H     41.51955807      1.90574828     47.65892509
  H     42.05530109      0.95251072     46.53518563
  O     20.97051146      0.91930076     38.12767742
  H     21.05795429      0.75039668     39.06864775
  H     21.22399734      1.82599743     37.93993809
  O     34.79584287     41.21134671     19.45217765
  H     34.34911788     40.40743449     19.72742653
  H     35.54209593     40.98731934     18.89135850
  O     22.88022916     16.13331888     11.22048530
  H     22.54626800     15.38204740     11.71612742
  H     23.39845810     16.69545316     11.80104005
  O     21.89349403     37.64256612     36.39573929
  H     21.39525201     37.10791603     35.77324095
  H     22.24290454     38.41558326     35.94634325
  O     42.41389912     10.92057670      9.63950278
  H     42.56635268     11.85600240      9.48673935
  H     42.06981716     10.79264292     10.52654312
  O      9.80652131     36.42826371      4.66593775
  H     10.66948284     36.54406248      4.26160118
  H      9.58478168     35.49444068      4.68608942
  O     24.48030981     15.20649501     20.06500812
  H     23.57234914     15.23707578     20.37528580
  H     24.83417949     14.32376878     20.19604497
  O     32.60411450     43.54170932     32.67117228
  H     33.12676843     44.12622209     33.22504745
  H     33.02115860     42.67783260     32.63387300
  O     25.84424537     21.86411907     49.09490014
  H     25.72490166     21.62216944     48.17358724
  H     25.28546637     21.31156047     49.64630293
  O      1.41638092     43.60912851      6.84209562
  H      0.86106767     43.62507348      7.62502152
  H      2.08915750     42.93137023      6.94015368
  O     13.65673779     38.00402300      4.56708041
  H     13.47185495     37.60186643      3.71520693
  H     12.85023256     38.38274690      4.92445631
  O     23.48172722     12.39253101      6.64263009
  H     23.45030328     12.52849136      5.69282626
  H     23.10566916     13.15522293      7.08814258
  O     39.51493269     22.40657319     41.88238069
  H     39.49489028     23.14889051     41.27397022
  H     40.08878472     21.72101171     41.53266752
  O     43.12248221      5.39351205     27.93608436
  H     43.83589512      5.69613669     28.50270623
  H     42.38426287      5.10403254     28.47722560
  O     31.32035773     41.53243005     11.98024842
  H     30.78954410     40.87486547     11.52478634
  H     31.79149192     42.06608060     11.33616018
  O     21.00731895     47.20879793     20.90260425
  H     20.22411207     47.20154082     21.45770273
  H     21.79101540     47.25879743     21.45479980
  O     11.19411363      0.41370586      1.73562057
  H     11.65832294      1.22442357      1.51460808
  H     10.25008536      0.54283489      1.61841846
  O     30.77493601     24.77060100     18.29637154
  H     31.31994182     25.11949924     19.00548274
  H     30.95787747     23.83513422     18.18220351
  O      5.40570759     23.79190709     14.90767748
  H      6.21518426     23.29522266     15.04786341
  H      5.22786238     23.85578952     13.96646012
  O     36.25997066      5.70666281      4.43427278
  H     36.20689626      6.45251308      5.03634461
  H     36.24090278      4.88817204      4.93558034
  O     46.04624756     26.08358160      8.23410500
  H     47.00251759     26.16040968      8.26939062
  H     45.73008567     26.40402337      7.38619066
  O      9.65257461     30.86674403     18.91182353
  H      9.76123325     31.20658162     19.80306072
  H      9.10475894     31.46943018     18.40362337
  O     39.45227424     11.13215138      9.42612230
  H     38.91136121     10.81314051      8.70000581
  H     39.28966550     12.06884466      9.55940428
  O     21.51581571     44.99939968     29.69489211
  H     21.37578537     44.38460685     30.41878526
  H     21.17411432     45.86313613     29.93737820
  O     38.92925023     47.33120730     37.41762231
  H     38.60420771     47.02925839     38.26895903
  H     38.26103296     47.17594818     36.74607165
  O     43.39817897     36.90317833      7.84169416
  H     42.94142731     37.24916433      8.61193543
  H     44.03567168     36.24067838      8.11791303
  O      0.71307408     35.19354777     16.89617321
  H      0.47904841     34.43565666     17.43694400
  H      1.34146146     35.74340917     17.36986272
  O     48.02671018      2.49723584      8.32650908
  H     47.41814526      3.00891263      8.86450128
  H     48.55210986      1.92639474      8.89192541
  O     14.02167389      5.57994402     50.29135345
  H     14.70106159      4.92431770     50.11761091
  H     13.91433010      6.14217211     49.52065450
  O      0.31027755     36.77282094     41.73023646
  H      0.62534559     36.05320661     42.28204018
  H      0.31879161     37.59014013     42.23374103
  O      9.74530436     16.52135654     26.36910500
  H     10.43070451     16.52916002     25.69696979
  H      8.89279942     16.36671101     25.95568016
  O     30.29620655     35.63815854     40.47814770
  H     29.55446246     35.74005456     41.07900784
  H     30.35295143     34.72378471     40.19126703
  O     13.56507921     44.80764495     16.58505354
  H     12.63662387     44.87958019     16.81828306
  H     13.98224354     45.66892169     16.66105552
  O     28.01843898     19.10654995      2.76168165
  H     27.99268089     19.86331213      2.17155664
  H     28.71950948     19.22665656      3.40640994
  O     35.64789414     29.89201586     21.46799621
  H     35.81402879     29.91448611     22.41324452
  H     34.87429029     30.42332088     21.26587732
  O     35.99092095     38.73058464     36.89567515
  H     36.20121266     38.09843470     37.58687979
  H     35.21005880     39.23021757     37.14511701
  O     44.43454927     11.84591425     43.71196078
  H     44.95438062     12.08709118     44.48216144
  H     43.80434895     11.16261093     43.95184437
  O     24.95455608     -0.03668792      8.19179224
  H     25.26938160      0.86246611      8.31014308
  H     25.40124442     -0.43653782      7.44199922
  O     15.87463793     25.11012926      1.64620797
  H     15.22892292     25.78113545      1.41296386
  H     16.75654930     25.48761291      1.60962329
  O      5.61918590     37.48766797     38.41859601
  H      5.67427087     38.26145234     37.85306671
  H      4.70749243     37.35059901     38.68622842
  O     24.24991064     24.71611409     16.70380053
  H     25.08129545     25.11353997     16.97296958
  H     23.59519652     24.84409992     17.39414033
  O     24.67613268      1.61480421     24.96227495
  H     24.33417403      1.85999873     25.82514454
  H     24.40420646      0.71828257     24.75273955
  O     26.82692061     33.79762246     37.81468773
  H     27.17841221     33.24076980     37.11614012
  H     26.60526184     33.25575173     38.57550538
  O     43.00555471      5.15850547     10.84020321
  H     42.78199608      5.94221833     10.33284170
  H     43.79200909      4.75080448     10.47024454
  O     49.81303766      0.61959219     22.42166914
  H     49.11431339      1.27665143     22.38095595
  H     50.62278605      1.03169247     22.73163833
  O     46.82909213      4.49763352     21.54705835
  H     47.32449814      3.68237591     21.43969022
  H     46.07960619      4.34320144     22.12673202
  O     17.84215658     46.28164684     48.33544507
  H     17.26165254     47.01157817     48.10781527
  H     18.19221413     45.88826394     47.53275608
  O      0.90543461     42.93957379     10.47951569
  H      0.43058627     43.75691923     10.64704326
  H      0.97495939     42.43659030     11.29423891
  O     24.51147807     38.03647637     29.95699793
  H     25.00826721     38.70739907     29.48301132
  H     24.67115466     38.12551427     30.89942864
  O     33.75207264     24.01156520     24.47995576
  H     34.23862779     24.10247147     23.65739869
  H     32.81218448     23.95771231     24.29204587
  O     31.17160056     38.98236314     23.50731849
  H     31.25500147     38.20635481     22.94834143
  H     30.26153666     39.28780413     23.49785742
  O     25.22940699      4.37378823     22.71671509
  H     26.18258145      4.42400091     22.81936566
  H     25.01291949      4.25248990     21.78934252
  O      7.41191085     13.63494855     42.03742291
  H      6.60007777     14.03785855     42.35395188
  H      8.06007557     13.62118898     42.74544352
  O     35.56888921     21.67628482     22.91577054
  H     36.28166275     21.45803846     23.52068575
  H     34.77498656     21.20076032     23.17110372
  O     29.28633220     31.31970101     28.10428646
  H     29.26812918     31.56390837     29.03252749
  H     29.29434122     30.36303839     28.02470955
  O     43.98448299     19.36999839     47.51194578
  H     44.57361225     19.52318320     46.76961085
  H     43.07524311     19.36595901     47.20394169
  O     23.59824685     12.71301169     27.97290345
  H     23.03682250     13.31984685     27.48489341
  H     23.34020647     12.71093652     28.89757143
  O     17.73553194     13.02759004     49.63474387
  H     18.38890990     12.39436224     49.32860700
  H     18.14797706     13.88804914     49.74009649
  O     15.63583856      5.46749786     42.05838712
  H     16.19877180      4.86359969     41.56847573
  H     15.10446381      5.97965377     41.44443500
  O     22.48692537     43.05786383     35.07907927
  H     22.77731375     43.36128040     35.94233646
  H     22.03460348     42.21607781     35.17073731
  O     25.45128781     14.68940720     49.38010017
  H     24.68642018     14.51193568     49.93244189
  H     25.29418862     15.48077929     48.85985978
  O     35.47012871      9.06856456     27.02494019
  H     35.88241097      9.21856386     26.17105287
  H     35.04447251      8.20809734     27.02854302
  O     41.02968061     30.59041341      3.56664729
  H     41.90393849     30.98487862      3.60751742
  H     40.43331481     31.18059818      3.10013924
  O     26.00028843     19.02712364      4.08037181
  H     25.87219873     18.23941492      4.61395216
  H     26.35722520     19.73039858      4.62772956
  O     29.60985960     39.89956695     25.34561934
  H     29.48707849     40.44374205     26.12689922
  H     28.80295548     39.89889744     24.82551810
  O     28.70576156     11.99078845     31.24840961
  H     29.45924045     11.89839169     30.66075971
  H     28.74358211     11.31279507     31.92700713
  O     37.34309321     39.94953900     42.02940161
  H     36.69996326     40.02804532     41.32100862
  H     37.95333801     39.23563900     41.83053461
  O     35.11255385      5.89081493     33.42320109
  H     34.52087770      5.13540894     33.45288491
  H     35.52043855      6.01239652     34.28369397
  O     22.90566896     47.91096679      7.86340668
  H     22.41008825     47.27191541      7.34609334
  H     23.45307663     48.44075073      7.27922022
  O     25.60869948     48.21864544     42.58853078
  H     24.73212338     48.25636220     42.97813544
  H     26.15055298     47.59569013     43.07834858
  O     44.55053812      9.84971754      7.55427425
  H     45.06160959     10.57018217      7.17832655
  H     43.85160610      9.60065569      6.94512548
  O     24.51316940     28.54344543     48.22046902
  H     23.97075019     28.52471076     49.01232154
  H     24.99827539     27.71849794     48.14474697
  O     36.90849006     30.63138169     33.70419093
  H     36.37340914     29.90422852     34.03059048
  H     37.79666178     30.31769138     33.51885504
  O      2.24699429     27.89210060     31.90453935
  H      1.88436051     28.42883015     32.61307173
  H      3.03797531     27.44473340     32.21407389
  O     43.65878969     11.88942635      3.57794538
  H     44.34773525     11.83687074      4.24442264
  H     43.22019892     12.74134228      3.63691472
  O     18.37587726      5.64835848     45.84640916
  H     17.95895892      5.40739699     45.01591734
  H     17.74507246      6.11751808     46.39738518
  O     28.17182764     41.24197611     47.17404205
  H     28.97681645     40.87091590     47.54269818
  H     27.67246233     41.67772942     47.86855868
  O     24.84402427     17.21685409     19.83218042
  H     24.27303883     17.98718649     19.78566567
  H     25.08766339     16.94448557     18.94445559
  O     42.20199320     21.47673221     48.48126970
  H     42.93200840     21.24196429     49.05881783
  H     41.43502845     21.70592260     49.01121011
  O     47.53438864     10.15025574      2.71217798
  H     46.89448957     10.48142817      2.07778535
  H     47.09109532      9.95038680      3.53991190
  O     22.63974003     12.79924491     17.71114447
  H     22.72181550     11.86846808     17.93141275
  H     22.23169192     13.26707309     18.44342416
  O     27.48890544     25.30680916     47.57127545
  H     27.00051810     26.10526930     47.78467466
  H     27.97408857     25.01144816     48.34520000
  O     30.12515510      7.46760616     17.32470437
  H     31.06069317      7.57593829     17.13860583
  H     29.61020793      7.91857907     16.65161236
  O      9.56751241     36.74248103     33.62088265
  H     10.03797148     35.91339078     33.73436230
  H      9.51112813     37.19701762     34.46457531
  O     37.75833746      8.95800131     46.46004623
  H     37.90518297      9.85873007     46.16218033
  H     37.81864523      8.35927222     45.71205797
  O      4.01680866     24.98603430     32.07097774
  H      4.05793745     24.19406433     31.52996758
  H      3.98577094     25.76014017     31.50405908
  O     42.50239503     43.96488128     43.05537659
  H     43.10392883     44.53685996     43.53766019
  H     42.13517506     43.30938218     43.65293029
  O     13.03832941     21.10130263     24.38998182
  H     13.58905973     20.58451579     24.98262631
  H     12.73028751     21.88903900     24.84405407
  O      0.72359042     16.24222781     41.07676307
  H      0.58105648     17.18351348     41.20031621
  H      0.16203465     15.92362292     40.36630826
  O      7.15394263     19.21807626     49.18775939
  H      7.57805156     19.09039084     48.33603875
  H      7.54477262     19.97518917     49.63006240
  O     49.63021566     28.89332175     49.80464147
  H     50.08549691     28.06784951     49.98606521
  H     48.98625561     28.75723582     49.10578807
  O     47.24775279     28.68551380     23.35606633
  H     47.35627674     27.75538073     23.56743100
  H     47.00965705     29.16900902     24.15051129
  O     17.08625720      4.46448099     34.55472356
  H     16.75956456      4.10081828     35.38093258
  H     16.40488558      5.00784374     34.15211998
  O     46.98337991      7.15680371     20.73878146
  H     46.70912072      7.41729240     21.62112353
  H     46.71016839      6.25166333     20.57241930
  O     31.30968275     43.54485405     20.22060416
  H     31.21737960     44.45135506     20.52282272
  H     30.91366723     42.95110796     20.86266123
  O     29.37196482      5.19469273     49.39637301
  H     28.92964193      5.51571308     48.60713515
  H     28.75506713      5.19475937     50.13192535
  O     27.97133153      6.40617120     12.35288152
  H     27.04985965      6.15492027     12.25612127
  H     28.52076268      5.81630028     11.83155849
  O     -0.96897882     46.46755673     17.41336484
  H     -0.37690340     47.21805739     17.50165669
  H     -1.21546915     46.14956553     18.28498638
  O      0.36485740      2.50475323     33.83939571
  H      0.25697093      2.40761611     34.78835561
  H      1.13573835      3.04751220     33.65841153
  O      1.32541754     19.97662527     17.30462340
  H      1.95331366     19.62151103     16.67118806
  H      0.46433214     20.06198639     16.88887657
  O     34.80425533      0.11057959     35.50660256
  H     34.48061949     -0.77709045     35.33659738
  H     34.47725510      0.70624097     34.82847398
  O     19.71250779     35.64019543     10.53759677
  H     19.75303067     34.68107856     10.53033556
  H     18.86353086     35.92244023     10.88570026
  O     39.17979019     14.09009625     35.80616284
  H     39.92244585     14.13650740     35.19960816
  H     38.55877408     14.79453115     35.60688798
  O     27.86422071     11.29213809     45.36491794
  H     27.27251830     10.87374566     45.99454961
  H     28.75538050     11.30403055     45.72169912
  O     13.79025821      9.47825697     47.14043732
  H     13.84954930      8.84837653     47.86247278
  H     14.25206222     10.28500253     47.38022610
  O      7.62572471     20.91711075     43.60769535
  H      6.87800286     20.61080309     44.12604626
  H      8.26513851     21.33931315     44.18605087
  O      4.91898871     48.21573770     41.38786456
  H      4.83894307     49.07937166     41.79936071
  H      5.26570674     47.58770445     42.02579939
  O      0.46154669     37.93041724      5.55209545
  H      0.09261740     37.48049589      4.78851050
  H      1.27981160     37.50121218      5.81252884
  O      0.25885280     39.53577709     29.28999808
  H      1.13836062     39.18703907     29.45262584
  H     -0.21471398     39.61141361     30.12163119
  O      7.98357117     -0.40850233     26.15268588
  H      7.73285741      0.51798197     26.17190746
  H      8.31557540     -0.66859841     27.01507977
  O     36.97756886      2.11059438     18.35787222
  H     36.89026196      1.71330203     17.48831123
  H     37.53248275      1.55476633     18.90989193
  O     22.41038738      2.58048199      0.50091615
  H     22.07386134      2.27383930     -0.34425868
  H     22.06848330      3.45900367      0.68230320
  O     25.86250409     24.44760003     46.05170719
  H     25.54278262     24.83962340     46.86760906
  H     26.00246042     25.13687259     45.39831942
  O      3.16902157     44.30566373     19.25920969
  H      3.57859184     44.09166542     20.10067088
  H      2.81307384     43.50663889     18.86365877
  O     34.21414400     45.62368145     11.17188970
  H     35.17235868     45.66717532     11.21104200
  H     33.85228858     45.72769418     12.05497634
  O     33.71023383     43.00133966     17.33869891
  H     32.75342732     42.93527204     17.38060795
  H     34.08110802     42.14463760     17.11483752
  O     47.56676654      3.08850221      0.07084462
  H     48.09255492      3.17182390      0.86972138
  H     46.68022002      3.41825346      0.23485495
  O     48.56770407     31.37315942     41.44802628
  H     48.08266245     30.62795337     41.08608351
  H     48.98827607     31.85873153     40.73462673
  O     37.57584649      5.69946768     28.29640180
  H     36.84451336      5.82412017     27.68712878
  H     37.96009479      6.55175843     28.51446995
  O     11.18432930     12.30490020     11.92746744
  H     11.14004263     13.12142490     11.42454983
  H     10.33045292     11.86683317     11.90312783
  O      4.78372789     19.06662283      8.78875801
  H      4.16770722     18.46686696      8.36166150
  H      4.42759324     19.95794509      8.77107335
  O     11.93536843     49.35575441     42.20979846
  H     12.80720281     49.63437451     41.92018553
  H     11.55164562     48.76985454     41.55323305
  O     23.35955797      2.87628420     21.59303728
  H     22.75729565      2.16257515     21.81552206
  H     22.87282426      3.70217532     21.54210438
  O     17.36736335     14.34229538      9.49188776
  H     17.21595511     13.47703202      9.87917949
  H     17.01842703     15.02006772     10.07538421
  O     45.31381763     14.39333874     42.86198721
  H     45.94139144     14.71530062     43.51321042
  H     44.56570787     13.99113143     43.30938086
  O     31.77049570     39.38821015      5.47101905
  H     32.49195694     39.90142050      5.09992767
  H     31.26292602     38.98876118      4.76079828
  O     17.12139906     38.44317529      0.78002068
  H     17.66720797     38.43086526     -0.00962551
  H     16.19870154     38.53228698      0.53044421
  O     42.33361648     13.94966321     44.17458656
  H     42.31333890     13.03784332     44.47420853
  H     41.44696119     14.22743859     43.93316735
  O     34.10741972      6.69094204      3.26765019
  H     34.21744245      7.60031267      3.55494805
  H     34.22834600      6.10165454      4.01579261
  O     12.58129213      9.37237262     30.63653262
  H     12.09118352      8.76471958     31.19523767
  H     12.57603273     10.24691225     31.03245280
  O     35.89731245     41.78364323     30.68624945
  H     35.00649213     41.56878120     30.40011407
  H     36.39743993     42.13054079     29.94386505
  O     36.71660896     38.20913238     22.57189439
  H     37.37029617     37.82864049     23.16309567
  H     36.03695421     38.65013861     23.08685355
  O     16.52903664     47.46604884     42.10249598
  H     17.39728712     47.83046008     41.91555869
  H     16.36979943     46.70938559     41.53354585
  O      0.11125241      0.78426020     24.35177942
  H     -0.40854746      0.18613700     24.89368046
  H      0.68197848      1.31254166     24.91462083
  O     18.37097275     10.29423275     45.78719709
  H     19.09519027     10.83744233     45.46777207
  H     17.75495454     10.12747738     45.07004006
  O     38.38238575     16.89805556     30.11339156
  H     37.81659213     16.54833953     30.80561716
  H     38.74296674     17.74341789     30.39077915
  O      1.79366377     12.55345131     22.61047177
  H      1.04756470     12.71019638     23.19388171
  H      2.46279062     12.04570667     23.07529931
  O     41.62332341     38.25977459     21.52450597
  H     41.34428951     37.57301788     22.13451032
  H     41.59524778     37.92150690     20.62651558
  O     43.72462520     28.23932544     30.02750182
  H     44.43701965     28.00774693     30.62788966
  H     42.94158606     28.46942091     30.53297761
  O      5.14738816     39.01793867     24.10173485
  H      5.12218494     39.15737470     25.05122018
  H      6.04152252     38.79270080     23.83454268