#B3LYP/6-31+G(d) OPT FREQ

5100, Energy =      0.00000000 au

0 1
  O     18.31159279     11.31058331     26.98514378
  H     17.37194861     11.13246137     27.06845882
  H     18.77302983     10.49895667     26.76167552
  O     24.97302774     19.78438193     19.80327100
  H     25.48832788     19.52987747     20.57222695
  H     24.43550348     20.55053619     20.01698885
  O     44.90544784     10.05127695      9.56641380
  H     44.18595529     10.68681174      9.57151324
  H     44.97142725      9.63499273     10.42894158
  O     36.94379937     10.85488727     27.24121786
  H     37.12987324     11.16572239     26.35219703
  H     37.14661108     11.54915919     27.87244992
  O      2.72446842     30.02588142     49.28831513
  H      1.98910933     29.75055465     49.84062138
  H      3.45823097     30.29840694     49.84412298
  O     34.59784725      1.07555365     33.00228537
  H     33.66883097      0.95184717     32.79437805
  H     35.09469304      0.30376005     32.72107565
  O     36.23665648      3.83598559      2.00602109
  H     36.44428322      3.10577449      1.41841332
  H     36.83789180      3.82603887      2.75436403
  O     41.94845526      3.04063501     17.78470148
  H     41.14603249      2.98039179     18.30823604
  H     42.70837828      3.09837733     18.36846756
  O     36.36433609      7.66068339     46.27825959
  H     36.96417662      6.91755926     46.37602394
  H     36.12789222      7.99788980     47.14543093
  O     32.75432606     28.74161092     44.79337433
  H     32.82175335     28.12011244     44.06481877
  H     32.02885422     29.34886097     44.63046954
  O     16.45606208     30.91532913     26.52422401
  H     15.87711890     31.43582862     27.08592240
  H     17.03485239     30.37852598     27.07052445
  O      9.32438606     42.09001270     35.16299582
  H     10.09927391     42.10146032     35.72958012
  H      8.53270530     42.04088797     35.70376225
  O     15.28283332      9.47169868     42.58333195
  H     15.02124854      8.74790320     42.00949094
  H     15.30262258     10.28879892     42.07978891
  O     41.51003466     45.67895199     20.99453671
  H     40.59034391     45.68254102     21.26977484
  H     41.58496870     46.07241148     20.12208354
  O     26.97365259     38.27087692      5.57675394
  H     27.02791146     37.45547668      6.08051821
  H     27.00324053     39.02032640      6.17596177
  O     30.92220089     11.67434003     12.49676581
  H     31.44658389     11.20152363     13.14720191
  H     30.18568815     11.12513179     12.21834293
  O     15.83291920      7.08608262     28.12067603
  H     16.53445480      6.71194102     28.65869634
  H     15.23449534      7.58840332     28.67849573
  O     35.64118133      6.40238142     15.37283206
  H     34.96667545      5.97650157     14.83872704
  H     36.32083118      6.76598240     14.80058175
  O     39.41726981     43.38169561     35.68864419
  H     39.18610093     44.15334431     36.21086946
  H     39.38192704     43.60401407     34.75541035
  O     39.54396529     38.29071257     22.47696731
  H     40.15474828     38.76770374     21.91037791
  H     39.87380399     38.29430337     23.37851795
  O     21.52582431     47.85451589     22.12104826
  H     21.51520952     46.98279337     22.52302734
  H     22.01022234     48.46168654     22.68523117
  O     45.93692794     35.07494813     15.87964126
  H     45.27467410     34.39377488     15.74171786
  H     46.15299322     35.48657880     15.03971508
  O     19.35323594      7.91886623     14.56790236
  H     19.29519980      7.18660926     15.18598937
  H     20.27527765      8.14300165     14.42229192
  O     13.03994348     23.21185560     48.64070103
  H     12.71146690     22.31671696     48.52921132
  H     13.16278858     23.39405782     49.57521237
  O      1.20698788     22.40401499     24.65656489
  H      2.13472801     22.57148125     24.83781972
  H      0.76053976     23.23468828     24.47693764
  O     37.60486670     46.11987046     13.82372299
  H     37.80851602     45.40156219     13.22026612
  H     36.77636074     45.93619767     14.27254611
  O     48.50936019      7.46692966     33.07563767
  H     47.57363089      7.67036136     33.14365414
  H     49.02389509      8.23194143     33.34323969
  O     49.56468643     26.92152819     39.63455651
  H     50.27488316     26.60871619     39.06942886
  H     49.25928353     26.20282492     40.19294229
  O     24.77937451     36.06247726     50.14816253
  H     24.04473660     35.48531626     49.92727267
  H     25.56916046     35.76543471     49.69033737
  O     49.74099666     33.35296934     18.77063105
  H     48.84336460     33.34837149     19.11097727
  H     49.99115146     32.46223820     18.51446583
  O      0.60845382     24.22330091      9.33919363
  H     -0.06000951     23.59216985      9.06273320
  H      1.10929660     24.51542531      8.57406629
  O     17.84223344     28.20052627     28.62118339
  H     18.63653411     28.38386301     28.11415865
  H     17.07290582     28.28476799     28.05317076
  O     21.16473358     41.48322058     33.23945873
  H     21.70941995     42.08141278     32.72265813
  H     21.72749580     40.91889020     33.77465019
  O     48.87421371     22.16672598     -0.07546249
  H     48.96868803     21.39949594      0.49377619
  H     47.94514097     22.30752696     -0.27192863
  O     24.30895233      9.08579642     12.54514515
  H     24.69626655      9.51039977     13.31410529
  H     24.86774210      9.23808409     11.77953268
  O     48.11437557      9.30909401     17.03491181
  H     47.88601935     10.20866343     17.28032633
  H     47.36551776      8.89597640     16.59885467
  O     40.05627931     35.24533465     27.07816695
  H     39.78441417     36.03150720     27.55735592
  H     40.31479273     35.48730517     26.18585473
  O     30.80349996     43.45177664     17.08283577
  H     30.46769090     42.80418897     17.70690506
  H     31.10384829     44.22959848     17.55863412
  O      6.41378641     19.70263416     17.94838773
  H      6.40685351     20.05827956     17.05672171
  H      6.96616752     18.91796538     17.97613684
  O      1.05453046     19.17928342     44.52429113
  H      0.85642626     19.28573452     45.45757720
  H      1.50834072     18.34466733     44.38618892
  O      3.59357675     12.00516435      1.90769484
  H      4.10775489     12.18784385      2.69753599
  H      3.24317809     12.82693315      1.55624523
  O     17.67321467      4.58053031      2.00422552
  H     17.84460808      5.40103067      1.53624746
  H     17.42260420      4.77475937      2.91035435
  O      5.06960612     16.99404194     23.18224397
  H      5.78087315     16.75259501     22.58441239
  H      4.53070068     17.67866785     22.77917040
  O     28.75548656      7.47306034      5.03135399
  H     29.26273492      6.95237456      5.65839898
  H     28.27274076      8.15789170      5.49992895
  O     27.16121238     30.31018454     40.75030332
  H     27.01250610     29.77220052     41.53136647
  H     27.95761314     30.83309745     40.86823514
  O     12.72756988     30.42712984      7.10099853
  H     13.48586572     29.94002852      6.77036321
  H     12.69957686     30.36512527      8.05858499
  O     30.53839483      5.77186833     37.41375799
  H     30.75338953      5.91011685     36.48841231
  H     30.62248660      4.83951200     37.62645558
  O     31.39144199     26.05654765      3.77988993
  H     31.72345711     26.80920940      3.28505030
  H     31.35910512     25.28612325      3.20805029
  O     39.27764616     13.91375942     25.67629376
  H     39.23920843     14.79067598     26.06506089
  H     39.02324673     13.26087026     26.33250766
  O     25.61137146     21.01317194     47.43602541
  H     26.56359768     20.93230447     47.52727050
  H     25.25383567     21.47024028     48.20078466
  O      7.86489287      0.49638129     43.68140363
  H      7.25332851      0.82346555     43.01762286
  H      7.54666133      0.73432268     44.55531014
  O     16.48071338     15.28847399      1.17659246
  H     16.94028333     16.12453171      1.06980788
  H     16.57777390     14.76511876      0.37766909
  O     30.62131415     12.00351990     45.91380824
  H     29.81446534     12.43157486     45.61823428
  H     31.25034715     11.97028269     45.18936861
  O     45.38734052     38.31105509     20.74839277
  H     45.06921024     37.42538731     20.55869377
  H     45.46312306     38.80654872     19.92964795
  O     42.84377355     45.98519278     44.90356247
  H     42.24475185     45.55570483     45.51863410
  H     43.50476123     46.48039167     45.39292261
  O     29.07288549     49.76263997      2.49227307
  H     28.26646724     49.60312326      2.98809969
  H     29.81199585     49.84264155      3.09965732
  O     45.23167164      9.46257151      1.94038865
  H     45.98445778      9.47217745      1.34472033
  H     45.27753823     10.22107998      2.52704116
  O      2.31585665     43.26810346     11.65585777
  H      1.80829108     42.83254195     12.34452560
  H      2.95176898     43.86578678     12.05584548
  O     26.63161456     25.33991771      3.26567725
  H     25.80951886     25.78401431      3.48598810
  H     27.35627587     25.75284628      3.74102552
  O     15.57884262     31.95828530     12.79305642
  H     15.37895272     31.39036606     13.54079419
  H     14.87973211     32.60775695     12.68802752
  O     21.00781613     10.41708776     38.36195156
  H     21.14695580     11.36514949     38.30347841
  H     21.82874064      9.98762828     38.61344215
  O     27.61497205     15.23630581     11.73293594
  H     26.94381302     15.84551663     11.41669592
  H     28.09524959     15.63815784     12.46056801
  O     15.55647309     38.32144118      3.38667684
  H     15.07112522     38.43895691      2.56678203
  H     14.96793040     38.46658276      4.13109032
  O      9.57225766     10.95685326      7.32707850
  H     10.31386776     11.28999428      6.81655766
  H      8.75135991     11.27763208      6.94651598
  O     26.34023304      8.91649485     40.63871150
  H     26.65782034      8.57144929     39.80104697
  H     25.61836887      8.36977990     40.95748239
  O     45.76427471     17.55448516     18.24815614
  H     46.29607403     17.64747161     17.45434067
  H     45.10040995     16.87466159     18.11132229
  O     25.65954287     30.30300517     37.29560007
  H     26.30137276     29.78399985     36.80540841
  H     25.23820249     30.93210491     36.70542568
  O     32.90686200      9.61163585      8.11575106
  H     33.29618371      8.75365431      8.29986054
  H     31.99038663      9.49805624      7.85350581
  O      6.15833076     20.02054870     26.39656387
  H      5.71083719     20.48048711     25.68255675
  H      6.98864998     19.66120864     26.07555809
  O     24.24823827     17.60166788     29.37297560
  H     24.93251304     17.79469992     30.01803891
  H     23.48987650     17.21452269     29.81637838
  O      2.38802031     34.06691882     16.50411269
  H      3.32813934     34.13512706     16.32211311
  H      2.07431372     34.89134238     16.88294508
  O     49.70563060     47.72457559     32.55579987
  H     50.10309258     48.39075746     31.99026852
  H     49.29141541     47.04944503     32.01337523
  O     34.80500210     32.46233256     17.11655541
  H     35.43855592     32.00084584     16.56226346
  H     34.17079492     32.92348045     16.56272882
  O     21.80098507     28.67194816     19.43491281
  H     22.61185106     28.72261647     19.94631194
  H     21.04659008     28.68175609     20.02853896
  O     24.74088358     47.28663878     31.72402963
  H     24.26469627     46.45731581     31.80810738
  H     24.71592495     47.57925867     30.81005443
  O     26.30060597     33.55308573     39.44387116
  H     26.56987301     32.91323802     40.10696254
  H     26.39081877     34.44026143     39.79937212
  O     16.51996390     18.82653160      1.68305230
  H     16.77223110     18.81237077      0.75689857
  H     16.42129580     17.92649238      2.00210405
  O     20.67821934     46.04915637     37.32923655
  H     20.59626725     46.13964944     38.28144181
  H     19.82818874     46.21934914     36.91682606
  O     30.56707575     45.47362360     35.10593096
  H     30.30851916     44.77556423     34.49974484
  H     30.93131970     46.21031032     34.60972634
  O     13.74688373      8.29286097     46.99186624
  H     13.74812050      8.35292339     46.03374779
  H     13.00362105      7.75708423     47.27840398
  O      8.33709046     28.92033568     46.66810029
  H      8.49235783     29.20925019     47.57033111
  H      7.41769464     28.66295526     46.56776757
  O     29.58757883     21.19135948     48.11476845
  H     29.01733054     20.65214969     47.56189441
  H     29.32624715     22.11228027     48.04258352
  O     47.05964891     33.35795536      9.20602090
  H     47.47028735     32.85062478      9.91000369
  H     47.01643020     32.82396448      8.40941191
  O      6.04171898      0.43472014     29.25340608
  H      6.14317284      1.36168799     29.02528832
  H      6.13425859     -0.10185290     28.46275711
  O     31.14096873     18.44206979      2.06154933
  H     31.60194388     18.88966319      2.77482492
  H     30.68590161     17.67110508      2.40814323
  O     12.46769224     37.56733598     45.86375622
  H     12.54609223     37.43889019     44.91562378
  H     12.67563966     38.47879302     46.08193950
  O     48.98367550     30.73044077     47.08404285
  H     49.03618067     30.00911820     47.71534069
  H     48.67468746     31.52333302     47.52839437
  O     13.99344032     43.84459684     47.74248789
  H     13.13496977     43.43120901     47.62527515
  H     14.05200382     44.21680498     48.62545529
  O     37.39229645     13.51477378     11.80227239
  H     37.82106892     13.20667829     12.60404002
  H     36.79155565     14.23253309     12.01565484
  O      8.32003354     14.69644053      4.69365064
  H      8.52120617     15.42504228      4.10181530
  H      9.12146145     14.41762725      5.14262332
  O     11.95329058     16.87646374     37.63603462
  H     12.88044480     16.95676514     37.87169700
  H     11.44136871     16.65941246     38.41861033
  O     33.94422833      5.99993532      8.13312335
  H     34.66628318      6.62267291      8.24463430
  H     33.90700289      5.41319568      8.89203762
  O     12.74895228     11.72955387     32.34437058
  H     13.62732246     11.82699813     32.71929784
  H     12.56600708     10.79917987     32.19425300
  O      1.31222857     30.81001054     47.04531506
  H      2.24572655     30.62936487     46.91284371
  H      1.04661411     31.54716268     46.49064787
  O     27.31544527      5.84577046      1.22361763
  H     27.19853713      6.73514492      1.56559068
  H     27.10207829      5.20829806      1.90896679
  O     13.69373223     49.48859984     40.70110008
  H     14.35508616     49.80360939     41.32156762
  H     13.59619722     48.53789537     40.79191831
  O     49.33445037      7.42078973     37.51917815
  H     49.16122116      8.35969953     37.61937808
  H     48.76142700      7.06003827     36.83866173
  O      7.81128686     12.46957462     30.49702556
  H      6.94905964     12.28183135     30.11898232
  H      8.23574485     13.16929548     29.99520274
  O     32.97285881     33.11070525      7.04860677
  H     32.94584839     33.49174612      6.16788076
  H     32.59395172     32.22888595      7.02801199
  O     44.95010465     36.08085035     13.03545187
  H     45.02420591     36.89094898     12.52569780
  H     45.73362037     35.54329483     12.89856802
  O     32.24508207     18.16922942     43.59832845
  H     33.03758149     17.63530949     43.69038378
  H     31.85389823     18.31385985     44.46300020
  O     36.77488251     24.00325192      8.92924021
  H     37.29652802     24.45355082      9.59760902
  H     35.91107665     24.41705022      8.86435258
  O     20.38741673     11.38472614      9.63214843
  H     21.09422688     10.85725663      9.25294489
  H     19.65015617     10.81456971      9.86229732
  O     46.50521181     38.40359470     28.14915364
  H     45.72272387     37.85541820     28.24304265
  H     46.67662410     38.56058201     27.21771775
  O      4.34576764     33.29172813     33.73227719
  H      4.81428202     32.49564618     33.47084305
  H      4.68781208     33.60322536     34.57345201
  O      0.94669562     -0.08363019     11.05395039
  H      1.63850854     -0.29831887     11.68395329
  H      0.29513415      0.48255679     11.47406939
  O     35.71648106     38.23693944     43.82870552
  H     34.81285826     37.94886735     43.97729998
  H     35.93683817     38.13457137     42.89996254
  O     41.74686109     23.86511770     44.96334075
  H     42.03776220     24.33670505     44.17938800
  H     41.18213001     24.43588993     45.48955161
  O     32.46994290     13.86870001      7.16397477
  H     31.83878098     14.18533977      6.51361033
  H     33.25678907     14.41819173      7.14091076
  O     23.07719395      0.35888388     29.98584961
  H     23.33170245     -0.38940032     30.53073140
  H     22.91696903      1.12264019     30.54495987
  O     50.36043508     20.33785286     47.34382885
  H     50.57269525     20.99045263     46.67251734
  H     51.08307675     19.71058503     47.42079698
  O      8.39417219     49.09193857      1.82875535
  H      7.64642996     49.62631252      2.10611078
  H      8.40921575     49.03461092      0.87058666
  O      7.11435719      9.36800583     18.28975934
  H      7.43635459      9.47067601     19.18830067
  H      6.81601147     10.21771211     17.95720999
  O     42.60137440     13.51572370     12.07860607
  H     41.85361183     13.70438231     12.65032198
  H     43.27965783     13.05645582     12.57921032
  O     29.44185732     46.60339126     37.06365595
  H     30.18067362     47.20914965     37.15750291
  H     29.04560951     46.44558083     37.92370452
  O     -0.28053231     33.02118680     33.73421045
  H     -0.74726952     32.47635956     33.09630789
  H     -0.56029375     33.93476463     33.64088801
  O      9.60680219     21.88620897     29.20208263
  H      9.99311498     22.34213791     28.45075632
  H     10.30560483     21.57650034     29.78290570
  O      5.67725507     32.89837838     21.73727444
  H      6.16578227     33.18872004     20.96355428
  H      5.73135592     33.57001191     22.42107376
  O     22.43679393     42.32281969     47.61793248
  H     22.60853140     41.55330450     48.16561177
  H     22.12163949     43.04374184     48.16797697
  O     47.93871613     10.53746240     43.99325493
  H     47.81247173     10.60749437     44.94233758
  H     48.87700218     10.48170181     43.79803694
  O     20.11698889     45.15376611     48.76478827
  H     20.08504019     44.30424471     49.21076212
  H     20.65893318     45.76208530     49.27257184
  O     50.06712666     11.27813173     25.82575100
  H     50.55328235     11.88980561     26.38352131
  H     49.67064160     10.59395163     26.37008288
  O     22.45368464     31.97223587     12.29586203
  H     22.17064649     31.54324610     13.10669936
  H     23.03735491     32.70442795     12.50757833
  O      8.58361273     15.24756041     33.78035599
  H      8.80630540     15.98502603     33.20751008
  H      8.47035162     14.45413233     33.25192075
  O     45.46201570      4.47150627     20.21495347
  H     45.86205331      5.22620435     19.77677459
  H     45.13364783      3.85537294     19.55604963
  O     22.67803041     19.95008426     42.58743669
  H     22.51471458     20.36861950     41.73905223
  H     22.93965383     20.61555421     43.22798563
  O     49.69254195     47.18907704      0.38435464
  H     49.58909030     46.47866777      1.02170574
  H     50.47288891     47.70401290      0.60229888
  O     37.32068651     19.70307800     26.83968683
  H     36.59853681     20.11558948     26.36017238
  H     37.68044456     18.98147038     26.31867187
  O      2.21165667     36.00806889     39.01431575
  H      1.51823451     35.61365156     38.48027391
  H      2.18247714     35.63967238     39.90033639
  O     47.20009453     10.25080841     13.61340237
  H     47.64417589      9.78992769     14.32893065
  H     46.51613409     10.81961045     13.97432114
  O      9.60257796     33.73850848      5.75715699
  H      9.39720562     33.17826372      5.00512773
  H      9.94535347     34.57953913      5.44607436
  O      8.85442571     28.12815630     14.50591194
  H      9.39812036     28.53768894     13.82894876
  H      9.08217132     28.49319903     15.36409359
  O     42.39894288     11.37925404     21.58248965
  H     42.02438632     11.04000028     22.39870915
  H     43.15533903     11.93510451     21.78372366
  O     49.22962076     29.74489399     39.94199863
  H     49.97109011     29.43296262     40.46594714
  H     49.01810090     30.64744654     40.19151465
  O     38.92241354     18.47765479      6.71993028
  H     38.44197214     18.36040561      7.54274781
  H     39.77193444     18.88674351      6.90037604
  O     39.71055664     10.37645082     26.13848599
  H     39.64780698     11.33100341     26.05791409
  H     39.04834890      9.96344944     25.57945937
  O     22.52175172     34.19834038     32.20338448
  H     22.54677418     34.84436338     32.91305212
  H     23.39856348     33.82908803     32.07511195
  O      5.23417481     43.69682317     23.28807752
  H      5.09419272     44.60752110     23.01857002
  H      5.06144823     43.11285130     22.54595733
  O      8.50670924     14.55544785     27.52825154
  H      7.74154818     15.04119330     27.84476363
  H      9.01944063     14.24198219     28.27688083
  O     22.49786186     23.41889058     21.01385006
  H     21.89740307     23.66841137     21.72009975
  H     22.78913498     22.51369825     21.14570913
  O     48.14909976     13.73700925     13.69529794
  H     48.95534269     13.27935541     13.94454743
  H     47.44623954     13.50367962     14.30615373
  O     43.57052962     19.66212155      5.51720920
  H     44.41287757     19.86450865      5.93083873
  H     42.94721398     19.36937262      6.18607069
  O      1.64242625     28.02776131     48.06841245
  H      2.37167110     27.52260388     48.43531560
  H      1.94965265     28.52908422     47.30954008
  O     39.80598726     49.30393525     20.10294807
  H     40.08160540     50.20716595     20.27560079
  H     40.16851001     48.72395002     20.77659071
  O      8.96470018      4.61264460     26.78506641
  H      8.70747929      5.43978639     26.37121394
  H      8.18061399      4.14688639     27.08486325
  O     26.00793514     45.37464115     35.73215529
  H     26.22380728     46.30721473     35.80499589
  H     25.28991220     45.16399720     36.33354717
  O      7.05658636     46.15989123     45.32485366
  H      6.73814678     45.38290076     44.85957736
  H      6.93228484     46.04119045     46.26934255
  O     12.13354161     34.05581071      7.41722218
  H     11.40398090     34.01071042      6.79488213
  H     12.95626185     34.17915405      6.93814198
  O     36.65224116     22.90783905     40.06329620
  H     37.44290691     22.99209317     39.52538457
  H     35.89277945     22.75825138     39.49545693
  O     22.22299262     23.94027998     30.29630624
  H     22.40381311     23.17719277     30.85002265
  H     21.91828194     24.66806018     30.84319506
  O     43.50089473     12.85646572     42.27780273
  H     44.20860934     13.50181391     42.21248999
  H     43.39948266     12.40580943     41.43624197
  O     19.00358204     47.62326522      1.79958847
  H     19.24042272     48.39542627      1.28067247
  H     19.04108165     46.84060839      1.24493357
  O      1.55868566      3.61368658     47.02132412
  H      1.47242643      2.65920044     46.96550699
  H      0.87566150      3.96400580     47.59782602
  O     15.94421189     23.84503291     39.53268862
  H     15.29360360     23.58559483     38.87618215
  H     16.82353330     23.62393658     39.21723612
  O      2.55903717     28.68159734     39.98875770
  H      2.01471896     29.14038287     40.63283342
  H      2.74977098     27.79505205     40.30381016
  O     41.76821060     32.79096358     23.08293149
  H     41.78190649     33.56332142     23.65291026
  H     41.74372080     31.99616379     23.62079166
  O     34.56249484     48.57494307     30.07173835
  H     34.60572090     49.53281765     30.11872558
  H     34.56795272     48.20997635     30.95964010
  O     35.60847283      9.52525027      1.21935335
  H     34.80477388      9.39459437      0.71082898
  H     36.18486218     10.13741477      0.75607165
  O      0.94662181     24.37033745      3.34404915
  H      0.20687931     24.23758750      2.74675652
  H      1.50624281     25.07492653      3.00941716
  O      7.24279578     35.10152453     12.74847485
  H      7.98188482     34.49314557     12.82074121
  H      7.31390877     35.77446830     13.42942245
  O     33.21478344     44.62807619     38.11781845
  H     32.47916999     45.21906504     37.94116898
  H     34.04121211     45.08306519     37.94005266
  O     42.62610803     49.72023692     34.22931934
  H     42.58157453     50.34430652     34.95743602
  H     43.41215688     49.17675242     34.32070754
  O      1.15940431     46.15144229     22.09165315
  H      1.57500117     46.38093805     22.92604571
  H      1.65712341     46.53956377     21.36830164
  O     20.07228255     41.35961814     38.21223418
  H     20.44334079     40.54314236     38.55470036
  H     20.32818859     41.46724156     37.29325142
  O      1.08982972     32.35999026     49.28777509
  H      1.31865464     31.79433979     50.02890849
  H      1.57283859     33.18692690     49.35469455
  O     33.06403824     13.87484813      1.63138940
  H     33.43243678     14.72318884      1.88868410
  H     32.48454161     13.55322700      2.32589895
  O     38.51315922     19.69280916     11.27195683
  H     39.28656494     20.25516502     11.18710707
  H     37.88036066     19.91227550     10.58420650
  O     39.46981749     46.89270059      3.22545830
  H     39.14023439     46.17558517      2.67890505
  H     39.79935968     47.59818950      2.66395376
  O     48.34732329     29.19346863     25.91329554
  H     48.83776345     29.69131609     26.57148727
  H     47.61424836     28.73959962     26.33543778
  O     18.95409185     38.59226298     34.94143374
  H     19.22557428     37.81279637     34.45120002
  H     19.19610861     39.38047058     34.44974618
  O     24.67073804     12.34961802     40.41639971
  H     24.84741726     12.82216365     39.59964694
  H     23.96545440     11.71432860     40.27293424
  O      0.61959447     36.33268750     45.59240783
  H      0.30357559     35.50398538     45.95981070
  H      1.39190577     36.62614870     46.08130025
  O     25.77593206     25.88430655     39.93003273
  H     25.83636366     25.00629152     40.31348761
  H     26.55229320     26.05273158     39.39105556
  O      3.62764626     28.85122793     14.31476482
  H      2.80149942     29.10272662     13.89544415
  H      4.32592298     28.82429981     13.65652132
  O      7.08856603      3.87506621      6.40722621
  H      7.65651957      3.35457939      5.83440666
  H      6.48087440      4.39133819      5.87264776
  O      1.62545709     33.68510235     33.43565515
  H      1.94105660     33.65915684     32.52938599
  H      2.36947939     33.80247969     34.03084703
  O     37.08637928     13.67998981     31.84595550
  H     36.95788564     13.00773022     31.17278655
  H     37.88532372     14.17661126     31.65450070
  O     48.10841610      9.23503834     28.57162220
  H     48.03414630      8.38719696     28.12749498
  H     48.62248414      9.83722514     28.02875471
  O     14.10860251     22.84856031     25.71907737
  H     15.03252574     22.59700529     25.78753124
  H     13.56423787     22.19208219     26.15987623
  O     44.33538777     23.68860730     41.63575099
  H     44.40851575     22.83874861     42.07619679
  H     44.11566668     24.36556882     42.27999144
  O     44.97595381     13.12272072     33.56271951
  H     44.24350332     13.69126481     33.81146414
  H     45.20099312     13.27441971     32.64188036
  O     38.88665375     16.33369493     22.09355045
  H     38.62577166     17.16371511     22.49926840
  H     38.23835860     16.08295566     21.43139999
  O     -0.18291606      5.89516220     24.57242176
  H     -1.06553698      5.93647264     24.19709021
  H      0.39522680      5.41004070     23.97911917
  O     18.76759976     42.63806757      1.78790741
  H     18.13131125     42.33054392      2.43765055
  H     18.76928766     42.04311567      1.03449557
  O     42.04850520     19.78767343     25.89218024
  H     42.27771626     19.08295420     26.50245320
  H     41.56827108     20.47405783     26.36106365
  O     10.07911975     24.88889389     14.72681117
  H     10.80689482     24.62967996     15.29668098
  H      9.35780533     25.22752854     15.26219149
  O     48.19641952     13.99777557     30.34053212
  H     48.95480410     13.81706688     30.90070816
  H     47.42600589     14.16505474     30.88832818
  O     33.98254145     19.40040158     22.42220503
  H     33.58281494     19.44083772     23.29409014
  H     33.31149253     19.18035215     21.77191925