#B3LYP/6-31+G(d) OPT FREQ

3055, Energy =      0.00000000 au

0 1
 Au     20.17717056     21.22092338     21.70556524
 Au     19.90433995     18.46802948     21.39545534
 Au     21.81396663     19.62134362     23.29026481
 Au     22.25858917     19.90163746     20.41087965
 Au     18.93873058     19.85023094     23.78799127
 Au     19.65814126     20.30375633     19.12904768
 Au     17.60635637     20.27198517     21.21621852
 Au     22.74798584     22.16985739     22.19491436
 Au     20.69620040     22.13808641     24.28208412
 Au     21.41561047     22.59161228     19.62313684
 Au     18.09575109     22.54020526     23.00025356
 Au     18.54037097     22.82049966     20.12086578
 Au     20.45000117     23.97381727     22.01567514
 Au     19.62773878     15.67709022     21.08105968
 Au     23.47338343     17.99965746     24.89686515
 Au     24.36877326     18.56411884     19.09830135
 Au     17.68317520     18.46059535     25.89919670
 Au     19.13193890     19.37391391     16.51692232
 Au     15.00001319     19.30993252     20.72010897
 Au     25.35433012     23.13190578     22.69102634
 Au     22.67116578     23.98124427     17.51192900
 Au     15.98556614     23.87771978     24.31283464
 Au     16.88095059     24.44218228     18.51426558
 Au     20.72660234     26.76475653     22.33007080
 Au     21.60157837     16.67558375     23.03663537
 Au     22.06590220     16.96829834     20.02965631
 Au     18.59893080     16.91461385     23.55641778
 Au     19.35022255     17.38823601     18.69102345
 Au     17.20751639     17.35505717     20.87068192
 Au     24.06014651     18.17271620     22.00843224
 Au     20.59318197     18.11903181     25.53518674
 Au     24.57122880     20.54144302     23.87151914
 Au     22.42852687     20.50826424     26.05117329
 Au     21.80879394     18.88537002     17.66281947
 Au     25.03555387     20.83416472     20.86453787
 Au     23.64413921     21.27460667     18.17880410
 Au     16.19911916     18.79850672     23.36923658
 Au     19.42587701     20.74730139     26.57095709
 Au     16.71019947     21.16723772     25.23232394
 Au     16.95040955     19.27212765     18.50384598
 Au     20.92846248     21.69453985     16.84017260
 Au     17.92581538     21.93357402     17.35995521
 Au     15.31878652     21.60767654     22.54659091
 Au     15.78311050     21.90039519     19.53961237
 Au     23.40393317     23.16971615     24.90728468
 Au     24.15522357     23.64333457     20.04188981
 Au     23.14682345     25.08679099     22.54044665
 Au     18.54554320     23.55647118     25.74831261
 Au     21.00411662     25.05361214     24.72010579
 Au     19.76115885     24.32281069     17.87594032
 Au     21.75540824     25.52723207     19.85470899
 Au     16.29419126     24.26912625     21.40269793
 Au     18.28843519     25.47354755     23.38147215
 Au     18.75276050     25.76626165     20.37449287
 Au     21.22240329     23.06792475     26.89421082
  O     34.26225490     16.30088577     25.02625245
  H     34.62529857     16.51385347     24.16344073
  H     34.97688541     16.20734032     25.66040739
  O     13.88161020     23.90487777      4.65058556
  H     13.04581692     23.89797157      4.17835478
  H     14.60445448     23.96587903      4.02179704
  O     17.13471588     27.13635410     29.96552086
  H     18.04884899     27.07737283     30.25271744
  H     16.57398043     27.33296616     30.71952316
  O      8.93930554     31.26918684     14.45515558
  H      9.71846392     30.95264800     14.91809767
  H      8.25701203     31.49330895     15.09221511
  O     -0.03977578      5.93931180     16.02868868
  H      0.48166037      5.35852944     15.46976454
  H     -0.60679993      5.41295372     16.59704665
  O      3.98092479     31.60610080     26.70072721
  H      4.03766452     31.39257695     25.76649588
  H      3.16689335     32.08565020     26.87097757
  O     17.31734224     36.70325074     12.26750512
  H     17.78740534     36.27847648     11.54625099
  H     17.84167505     37.43259929     12.60621709
  O      5.72297315     34.56772965     17.52835809
  H      5.57677790     33.97556937     18.26969010
  H      5.62019055     35.47680206     17.81925859
  O     14.41617795     15.05045887     26.67075248
  H     13.59104604     15.40298807     27.01204490
  H     14.90651801     15.74980226     26.23247694
  O     27.18251508     22.37321252     39.87558839
  H     27.58383355     21.50369658     39.94256244
  H     27.86428855     23.04634920     39.93618498
  O     16.06687550      2.84297134     22.74294147
  H     16.31142585      3.57265121     22.16904042
  H     16.78327888      2.66368886     23.35631248
  O     37.19468496     16.80808691     28.68336410
  H     36.64693790     17.59207922     28.76660601
  H     37.73345936     16.70841457     29.47164550
  O     16.15981702     22.72985027     36.41830676
  H     15.87638213     23.46658664     36.96464382
  H     16.47363308     22.01691569     36.97941618
  O     33.82400784     11.12474595     19.35147723
  H     34.46167195     10.69933009     19.92940961
  H     33.22011287     11.65545010     19.87613329
  O      5.66658073     20.02323546     22.34737789
  H      4.90997231     20.18525636     21.77914122
  H      6.44553169     19.86948493     21.80775192
  O     13.00568597     13.63991390     10.76388543
  H     13.14647186     13.69241112      9.81571699
  H     13.55300026     12.94184000     11.13095479
  O     26.24336843      9.53404484      4.80442577
  H     26.52421744     10.06816460      4.05780678
  H     26.94906643      8.93174019      5.05104173
  O     37.37338869     13.61374712     16.97460298
  H     37.09163155     12.69911494     16.89936406
  H     38.17662247     13.74454600     16.46538088
  O      0.02391859     31.55837209     33.48048178
  H      0.35894277     31.04019054     32.74505899
  H     -0.53432867     31.00663182     34.03324094
  O     25.38749615     28.68838649     27.60829294
  H     24.66349024     28.36828433     28.15138598
  H     26.13201548     28.91744965     28.16938209
  O     26.13062039      8.97921515     24.09183236
  H     25.76511938      8.12456878     24.33180861
  H     26.03841189      9.11293482     23.14567347
  O      9.76424684     10.01708557     14.19279507
  H     10.35899594     10.76991805     14.22621311
  H     10.15317407      9.32515788     13.65282129
  O      3.06865522      9.01004175      9.48957447
  H      3.96006583      8.85890992      9.81229154
  H      2.44518987      8.91327314     10.21312598
  O     28.91070396     29.27398454      7.26970388
  H     29.00144699     28.37043500      7.58109421
  H     27.98083609     29.51071825      7.23965566
  O     13.48444269     21.51029391     37.68507621
  H     13.65606967     20.60653406     37.95959818
  H     13.13360901     22.00924688     38.42640048
  O      0.20978291     34.84505939     19.02942941
  H     -0.47765886     34.92830327     18.36452770
  H      1.06898429     34.96763531     18.61912691
  O     26.70453307     25.85129411      2.48886055
  H     27.42020825     26.29813000      2.03087940
  H     27.05810640     25.36070571      3.23445355
  O     22.59203293     28.83431285     21.62076144
  H     21.85292265     29.35537244     21.94296155
  H     23.40342100     29.14006189     22.03278926
  O     28.58936855     22.15313771     37.38231938
  H     29.21057583     21.66647082     37.92899739
  H     28.14626945     22.81778417     37.91477434
  O     26.10118115      2.87035631     37.28692102
  H     25.71481055      2.25588750     36.65863298
  H     26.60347017      3.53825754     36.81446607
  O      5.00557976     11.41205244     20.80902822
  H      5.76690716     11.19375533     21.35154731
  H      4.21558403     11.42148596     21.35438842
  O     24.00110931      6.04071081     29.63037609
  H     24.28276549      5.18273952     29.95619055
  H     23.10423456      6.21642946     29.92421048
  O     23.35962839     17.49986343     16.36257792
  H     23.47823600     18.39046506     16.02440492
  H     22.73372743     17.02749967     15.80875440
  O      5.36104700      4.26854051     15.78607488
  H      5.71024541      5.14664142     15.95518809
  H      5.94034250      3.61200827     16.17975258
  O     35.33167540     14.47370513     27.94299667
  H     34.77568426     14.26534554     27.18863593
  H     35.42429437     15.42616182     28.01946881
  O     32.26664686     26.62457741      1.56075959
  H     32.43358319     26.72742958      2.50052217
  H     31.53169570     27.18562723      1.30255445
  O     17.14280289     16.67735989     16.44928418
  H     17.28093866     15.75091856     16.65958152
  H     17.68423361     17.22110177     17.02617027
  O     20.43241765     35.42532797     11.94250428
  H     19.93194732     35.52255358     12.75593936
  H     20.11984943     34.65387876     11.46420810
  O     23.16874161     39.24856686     26.16374061
  H     22.24401942     39.20914074     26.41856302
  H     23.47423481     40.15769263     26.20574338
  O     24.05258958     17.34657630      5.67855165
  H     23.70654082     16.59087954      5.19816361
  H     24.27121738     18.04703943      5.05955788
  O     17.27508894     37.16982537     21.70397389
  H     17.45700950     36.22730894     21.71692341
  H     17.77217910     37.60176774     22.40249172
  O      8.10701066      6.12522396     29.04691319
  H      7.34327554      5.67281286     29.41247148
  H      8.90964532      5.74316297     29.40941423
  O     21.14995022     37.21324948     29.33715321
  H     21.25899495     37.15815046     28.38495924
  H     21.73769936     36.58550336     29.76386829
  O     15.55054196     37.81919242      4.32777450
  H     14.93862769     38.26423411      4.91862035
  H     15.68571577     38.35551928      3.54312073
  O     33.03017105      5.42577884     22.65833967
  H     33.37558742      5.32687558     21.76811179
  H     33.75823887      5.45186038     23.28350925
  O     12.54206365      5.99308458     21.69245849
  H     12.98002809      6.72820567     21.25727563
  H     11.92190009      5.58411170     21.08439735
  O     31.29129941     39.01558973     36.27399474
  H     31.47043789     39.73186959     36.88755205
  H     32.05516542     38.43609549     36.22608703
  O     29.53133134     20.27779908     17.32737004
  H     28.60522408     20.10230812     17.50938178
  H     29.61957260     20.65342712     16.44832678
  O     11.26651245     31.23502498      8.13965050
  H     10.66827724     31.70774200      7.55633819
  H     11.89291514     30.73039074      7.61566198
  O     19.72994696     10.93005846     33.98670234
  H     19.08963208     10.23506729     33.81763393
  H     19.98444993     11.34010631     33.15682946
  O     20.67453995     32.27274553      5.44820178
  H     19.97099511     32.00931705      6.04588907
  H     21.28646299     32.85148237      5.90886855
  O      9.08558883     29.20913527      6.13954091
  H      9.28508451     29.62600926      5.29810312
  H      9.65842489     28.44894883      6.26434248
  O     21.75786441     23.17403524     11.11982897
  H     21.49016605     22.76277594     11.94493708
  H     22.27170470     22.54961356     10.60246476
  O     29.32188556     33.97984820     24.98984732
  H     30.26343585     34.01395965     24.80567493
  H     29.09085427     33.10759156     25.31755588
  O     26.25789692     38.44051721      9.20801228
  H     27.10691259     38.10951764      8.90599956
  H     25.79446048     37.74725222      9.68362800
  O     38.92137486      5.01090562     22.68713111
  H     38.62528671      4.15493046     23.00531083
  H     39.66778931      5.30756080     23.21292688
  O     38.34992601     20.02331663      2.40699066
  H     37.66488767     20.40862144      1.85575324
  H     37.94471592     19.51215181      3.11134519
  O     31.42076820     14.58109805     22.06690578
  H     31.92049672     15.40038951     22.09206368
  H     32.01546490     13.84826825     21.89113227
  O     19.66038968     22.62932410     36.23828086
  H     18.80243696     22.22368014     36.09347029
  H     20.24031879     22.00386867     36.67883474
  O     15.11973125      3.27597303     11.63920532
  H     15.85333928      2.98593509     12.18628598
  H     15.19269708      2.87859188     10.76836423
  O     11.57102465     25.79810052      6.64943610
  H     12.08221478     24.98986570      6.73334753
  H     10.66107549     25.58084411      6.43404766
  O      2.82146395     13.04116148     16.25471626
  H      3.56234334     12.84773546     15.67567905
  H      2.03647044     13.20489076     15.72691145
  O     30.95570936      6.52601474      9.28013348
  H     31.05672258      7.08910954     10.05105538
  H     30.06725280      6.16277233      9.26281575
  O     10.78936621     35.64922041      4.12375494
  H     11.44319805     35.17071528      4.63866926
  H     10.21778707     36.14601186      4.71375117
  O      5.23556560     22.90607077     21.74267102
  H      5.11546952     22.28280735     21.02244908
  H      5.99543995     23.46374934     21.56050190
  O     18.29572898     18.59088618     19.52129919
  H     18.61960838     18.93620895     18.68616188
  H     18.64963106     19.11493587     20.24360469
  O     24.36253314     31.90301577     31.41606321
  H     25.26037181     32.23543177     31.34545627
  H     24.06054547     31.60993917     30.55321354
  O     20.23005390      5.31452526     33.86656614
  H     19.62313704      5.49899354     33.14599458
  H     20.93530860      4.74349207     33.55329804
  O     25.93341415     18.39495148     28.62303816
  H     25.25315786     17.91625686     29.10231140
  H     26.60674004     18.69600297     29.23753002
  O     13.68036563     23.57480895     31.83073226
  H     13.22630113     24.40007478     31.64536303
  H     13.58980158     22.98354862     31.07985985
  O     35.54970233     38.06267948     36.11535721
  H     36.14750422     37.33161612     36.28792389
  H     35.49532821     38.62263991     36.89323109
  O     17.22003641     36.18584459     24.78933654
  H     17.45482509     35.92488279     23.89581921
  H     17.00458654     37.12124364     24.80382734
  O     33.78525795      7.18186550     34.85404610
  H     32.87396201      7.42376579     34.67342508
  H     33.88614453      6.98819827     35.78888026
  O     34.08997747     16.93754626      9.75008941
  H     34.76592828     16.28361120      9.55758106
  H     33.75049359     17.29905235      8.92810155
  O     11.80754793     31.19481392     18.39942970
  H     11.59387979     30.78378650     19.24026404
  H     12.73086589     31.03555372     18.19033611
  O     16.99032619     31.68907532     24.47962112
  H     16.38463008     32.17454145     25.04447053
  H     17.49919204     31.07222974     25.01080573
  O     22.72440696     17.56408150     30.03115489
  H     23.30305576     18.16983083     29.56229105
  H     21.81170569     17.74543138     29.79517052
  O     27.35834207     27.81735980     30.03322788
  H     26.58601602     27.45199024     29.59548644
  H     27.89317055     28.29422986     29.39435900
  O     27.38894855     33.89696266     35.98282909
  H     27.04589621     33.00269064     36.04757968
  H     27.45092407     34.15030045     35.05893569
  O      3.11536430     25.54512850     30.06217766
  H      2.25537829     25.44676626     29.64702835
  H      3.03339417     25.39947192     31.00751626
  O     22.07721405     30.19346385      2.63143392
  H     22.47040545     29.54044948      2.04784781
  H     21.75379634     30.93356105      2.11253400
  O     37.50668245     12.57498115     20.04493207
  H     36.77491712     12.21778747     19.53647148
  H     37.33715725     13.49842223     20.24522633
  O      3.84621678     16.77499576     33.86110081
  H      3.67610903     17.54517298     34.40835799
  H      3.18774689     16.10061086     34.04337099
  O      0.34693531     17.29664767     24.41756125
  H      0.60027957     16.61843697     25.04799518
  H      0.02013301     18.06641040     24.88901178
  O     32.73362589     26.20403105     37.05899100
  H     32.21514629     26.75220189     37.65252923
  H     33.15127055     25.49795469     37.55761822
  O     10.46612596     27.91014853     13.19358628
  H     10.02626706     27.16532670     12.77721555
  H     10.43947142     27.80565971     14.14751061
  O     17.16999779      2.52645623      3.17731816
  H     17.16818940      3.21862123      2.51210816
  H     16.27322614      2.37506669      3.48469712
  O     37.82673806     24.94965063     29.72007014
  H     38.15226601     24.06041928     29.56227544
  H     38.47426631     25.44222830     30.22965272
  O     22.56100052     31.00787852      7.01169825
  H     21.71219804     30.93120169      6.56982155
  H     22.77545215     31.93545953      7.13500265
  O     11.61123182     16.81179163     15.81900914
  H     11.01829439     16.39416863     15.19002882
  H     11.13241623     17.01182629     16.62667353
  O     24.60174758     23.26300317     38.48243851
  H     23.90960871     22.87722700     37.94047860
  H     25.27986902     23.63898829     37.91641156
  O     38.66041212      2.46226459      1.08143595
  H     39.53468933      2.13673814      0.85500297
  H     38.44297123      2.19918170      1.97871342
  O     22.90913077     38.56118347     22.42166435
  H     22.28500233     38.66436026     21.69957139
  H     23.20970909     39.42564588     22.71141842
  O      5.82364511     22.99970416     33.83573284
  H      5.40848876     23.59569489     33.20800657
  H      5.28110299     22.93715961     34.62524930
  O     20.13678026     12.37312774     28.37363933
  H     20.45847274     12.79896631     29.17162146
  H     19.59963718     11.61340890     28.61008083
  O     28.93900857     14.44549160     21.81050797
  H     28.28907552     14.28993043     21.12131442
  H     29.52163631     13.68558456     21.87896392
  O      7.95406378     29.66469833     16.73764605
  H      7.36451158     29.94232462     16.03269792
  H      8.52571539     30.39559920     16.98381341
  O      1.68978262     30.54606934     17.60926831
  H      0.84724624     30.98844329     17.73590849
  H      2.18772582     30.56411372     18.42983334
  O     13.45594217     17.85710627     25.82112641
  H     13.13401522     17.00821825     25.50911332
  H     12.77278221     18.52141832     25.70458468
  O      9.59620156     37.34188517      9.47950905
  H      8.68706043     37.64127716      9.55317615
  H      9.61386557     36.38435584      9.41298413
  O     27.13644893     32.53360969     25.18100695
  H     27.09173386     32.27751235     24.25687778
  H     26.90172117     31.78405488     25.73297659
  O     24.14905694     37.29542455     37.13969867
  H     24.66653240     38.06517527     36.89210430
  H     24.25294016     36.61174728     36.47382054
  O     18.02543316     30.27749743     20.41738895
  H     18.64357575     29.64318456     20.04705541
  H     17.26811858     30.36511070     19.83395211
  O      2.47637771     14.98102824      6.11275843
  H      3.28506029     15.46773887      5.93741521
  H      2.68281185     14.18356442      6.60574566
  O      3.22624130     16.50278635     18.61023437
  H      3.39137062     17.39666006     18.91897715
  H      2.59864279     16.07242296     19.19547575
  O      3.02255459     16.94644151     12.48730602
  H      3.93579908     17.23603423     12.42630957
  H      2.72165105     16.65137089     11.62475725
  O      8.20651036     14.36600768      1.71616098
  H      7.42598054     14.27286599      1.16507312
  H      8.98386039     14.45020266      1.15917073
  O     38.53905623     36.58839545      7.54113155
  H     37.94782954     36.29755683      8.23931770
  H     39.44269176     36.35911401      7.77020105
  O     20.50588294     13.83168783     39.61335792
  H     20.00241170     13.35643918     38.94833504
  H     19.93407735     14.46083522     40.05924124
  O     11.57006477     31.51785256     14.25105302
  H     11.93724375     32.40331661     14.30333122
  H     12.22732486     30.88078748     14.54046150
  O     27.32199027     28.09572925     37.11549163
  H     27.02912492     27.27819054     36.70627245
  H     27.47374501     27.94890229     38.05198100
  O     38.49075974     11.49480169     36.17044181
  H     38.70561847     11.15731661     35.29777948
  H     37.64637102     11.13646987     36.45364844
  O      8.56548877     13.57601011     15.47973316
  H      8.55047445     14.50102244     15.73610550
  H      8.09482857     13.05446129     16.13400054
  O      6.17651063      7.12474061      4.67735721
  H      6.81367377      6.48677624      4.34777474
  H      5.32949536      6.69268180      4.80960821
  O     32.38490477     18.16970645     39.78784025
  H     31.44519729     17.97340520     39.78388008
  H     32.52537395     19.07050241     39.48711605
  O     36.42488214     25.76528966      7.29224177
  H     35.97644207     25.21673080      6.64448820
  H     36.83455588     26.51274282      6.85056178
  O     18.13987183      6.69828474     18.48410351
  H     17.97952242      7.63146851     18.64239474
  H     18.20528078      6.54009090     17.53948910
  O     35.16992068     10.29619836     35.18807652
  H     34.84390288     11.19902522     35.17337720
  H     35.49193658     10.08605448     36.06770445
  O     18.38168166     39.26088518     29.22000849
  H     17.74161895     39.96604275     29.09887831
  H     18.59683026     39.18001689     30.15208757
  O      0.48035999     12.30185804     29.23099204
  H     -0.46282621     12.13998517     29.30712990
  H      0.94274769     11.46545905     29.14024870
  O     30.38050350      7.80649369      2.70671313
  H     30.66437047      7.70322488      3.61795136
  H     31.12453808      7.65267280      2.11989827
  O     19.86071860     13.52345888     31.57821447
  H     19.33247150     13.29723504     30.80920356
  H     19.43438495     13.18737932     32.36997842
  O     13.92564825      9.82102572     15.29395969
  H     14.43249083      9.98196176     14.49470366
  H     13.56946536      8.92978135     15.27353368
  O      2.88331180     26.73275582     36.64849953
  H      2.84005119     26.04990544     35.97511711
  H      2.38697695     26.45283859     37.42109132
  O     15.84630725     15.60473833     10.34731862
  H     16.67049729     15.27331871      9.98335183
  H     15.16692794     15.58811470      9.66925710
  O     25.60037764     18.65955943      3.65517430
  H     25.74806355     19.60802299      3.66951846
  H     25.87482230     18.30531293      2.80618104
  O     28.95933978      9.47392186     28.13893546
  H     28.86477869      9.03830352     28.98916771
  H     29.48241427     10.27199274     28.24417778
  O     33.49544375     33.47963581     11.97502035
  H     32.55461134     33.66313991     11.92247867
  H     33.63640436     32.53015805     11.98992319
  O     17.37280975     21.78724433      2.96170386
  H     18.08374036     21.26231963      2.58669487
  H     16.83874465     21.23721546      3.53949509
  O     28.30869805     31.81057301     19.35188537
  H     27.54191301     31.41170543     18.93409912
  H     28.91172104     32.12989656     18.67661080
  O     18.17912480     29.06024279     32.66482829
  H     18.29359320     28.46891229     33.41237443
  H     18.76895468     28.79688373     31.95465738
  O     21.53931966     27.58261398      4.51185969
  H     20.73184710     27.06438922      4.47974785
  H     21.51983298     28.15905908      5.27927830
  O     11.70991583     19.24612716     20.41646456
  H     12.23896908     18.62826453     19.90661317
  H     11.82115759     19.06652533     21.35293050
  O     16.56284258     30.11891386      8.86163337
  H     15.84114482     30.01780210      8.23671037
  H     17.38894764     30.22095444      8.38336759
  O      4.45855274     26.43458007     34.37439616
  H      3.92331007     26.94991603     33.76649474
  H      4.91362748     25.74074489     33.89159215
  O     31.54006945     22.60815321     16.67145532
  H     31.18023374     23.39569070     17.08606714
  H     31.99230724     22.85121131     15.86028103
  O     32.79595549      5.62786346     37.11737940
  H     32.92309786      5.11970964     37.92187584
  H     31.85766968      5.77177804     36.97417210
  O      9.76147230      5.02318764     17.55899777
  H      9.09610451      4.87977551     16.88200540
  H     10.49657352      5.51568231     17.18660658
  O     30.78224479     31.41133412     32.41988041
  H     31.13033277     30.78092966     31.78503793
  H     30.41898391     32.16798879     31.95392413
  O      1.80199667     33.62051110     35.63118569
  H      0.90186605     33.29721060     35.54847146
  H      2.14045086     33.40651610     36.50368492
  O     27.17330834     26.67841436     31.80507979
  H     27.30890610     25.97411906     31.16697214
  H     26.34678937     27.12825433     31.61505243
  O      8.58444309     40.71886933      9.67559552
  H      7.73526616     40.39168574      9.36990052
  H      9.28576979     40.33619562      9.14333459
  O     38.95976581     21.71678661      0.90091652
  H     39.19206696     21.02395597      0.27832365
  H     38.71628978     22.51123659      0.42011650
  O     36.31983872     20.33815291     18.35514068
  H     36.68401278     20.60413550     17.50765586
  H     35.36107455     20.33913101     18.30645486
  O     24.39199428     20.32375099     30.74862366
  H     23.93970268     20.76229238     31.47299495
  H     24.22246392     20.79767758     29.93115619
  O     31.03991621     39.18306497     20.41426159
  H     31.64246371     39.61571484     19.80487615
  H     30.27800878     38.85374780     19.93192637
  O     32.97638222     17.94059767     16.94396886
  H     32.54834978     18.60208939     16.39550104
  H     33.92054038     18.11161212     16.97429099
  O     34.02438803      1.86275696     34.77554436
  H     33.71662659      1.86921602     35.68485243
  H     33.33050884      2.19278438     34.20003279
  O     29.92891566     36.72413525     17.93423887
  H     29.34658925     36.19216631     18.48150938
  H     30.42735062     37.32810770     18.48955847
  O     16.25687254     10.78789458     30.23017059
  H     17.19613271     10.90908371     30.07299700
  H     15.75714743     11.35540691     29.63872781
  O     29.32809365     32.49471230     22.88828192
  H     29.30880751     31.69352664     23.41679832
  H     28.45619262     32.89641383     22.88333507
  O     18.03990989     37.01300857      5.22302650
  H     17.98345030     36.17225377      4.76308771
  H     18.80264674     37.50162459      4.90508487
  O      9.77730248     29.17411974     26.78431924
  H      9.04734807     29.24098936     27.40423456
  H     10.36462115     28.46504990     27.05612200
  O     10.57989899     39.11045246     33.55392120
  H     10.07777150     38.30063630     33.43702050
  H     11.49280235     38.96137014     33.29705175
  O     27.12475764     29.09678873     14.84554154
  H     26.60384464     29.44415339     15.57326914
  H     27.62856724     28.33691223     15.14614691
  O      2.25707473     20.74316522     15.80887528
  H      1.74325073     21.09526346     15.07838795
  H      2.03252709     21.21388895     16.61485141
  O     23.96317907     27.36384197      0.15340672
  H     24.78886102     27.74389106     -0.15548163
  H     23.26320962     28.01692567      0.08182135
  O     18.76067007      3.83155842     11.84789880
  H     19.56700167      4.21597999     12.19953700
  H     18.57160346      3.00916702     12.30563913
  O     37.70837037      7.31187511     15.25776590
  H     38.37525104      8.00087331     15.21137999
  H     37.92817597      6.70019091     15.96425577
  O     22.60400274     19.23086026      5.47444196
  H     22.85663352     19.93101700      6.08070776
  H     21.65633924     19.26325464      5.32449359
  O      0.28770431     34.10762203     23.40270576
  H      0.71325263     33.54509192     22.75150034
  H      0.80306804     34.10675553     24.21264371
  O     31.54515452      3.25861504     37.26013917
  H     31.85436939      3.72629449     36.48086894
  H     32.06320371      2.45945861     37.38086219
  O     13.33235111      3.70362899     18.37622717
  H     12.80770016      2.90642159     18.27229572
  H     12.78304428      4.47288380     18.20856963
  O     22.52673711      1.13999618     38.29319441
  H     21.89166921      0.77231561     37.67424389
  H     23.21132094      1.60816418     37.80970325
  O     19.33253426     37.38874653     32.77822523
  H     19.97144620     37.40511041     33.49455180
  H     18.75910554     38.15596457     32.84269219
  O     29.63529369      2.39631664     33.93049978
  H     30.03487508      3.23359555     34.17727648
  H     28.91256428      2.19707187     34.53013611
  O      1.90336946     15.53039031      3.34236134
  H      1.17082133     16.14268950      3.24204716
  H      2.26118885     15.31446049      2.47810466
  O     25.73128540     39.04518914     32.01805912
  H     26.10676264     39.91256961     32.18618988
  H     25.42304593     38.66395936     32.84343920
  O      3.62400322     19.52765172      8.79709439
  H      4.57094593     19.68542131      8.79997203
  H      3.16703661     20.31492208      9.10203194
  O     34.39868885     20.00400530     10.60828670
  H     33.71795419     20.21262313      9.96433101