#B3LYP/6-31+G(d) OPT FREQ

3055, Energy =      0.00000000 au

0 1
 Au     20.81597992     19.96611401     19.41235945
 Au     23.16078978     21.38450456     18.92341724
 Au     21.99803231     19.59589546     16.91942546
 Au     23.17574716     18.49037051     19.36030953
 Au     20.63593507     22.08966295     17.62150677
 Au     22.54151637     20.30088892     21.57094214
 Au     20.97182603     22.52537379     20.49630173
 Au     20.66013661     17.40685567     18.32841335
 Au     19.09044641     19.63134073     17.25377414
 Au     20.99602874     17.84256626     21.20321311
 Au     18.45621456     21.44186065     19.46440603
 Au     19.63392921     20.33633722     21.90529355
 Au     18.47117006     18.54772346     19.90130166
 Au     25.53800522     22.82249746     18.42771778
 Au     23.19642082     19.22056044     14.39203879
 Au     25.56812669     16.99423204     19.30754027
 Au     20.45340197     24.24255960     15.80590428
 Au     24.29089996     20.64029046     23.75935672
 Au     21.12982596     25.12000288     21.59522423
 Au     20.50213954     14.81222806     17.22948697
 Au     21.17856588     15.68967079     23.01881661
 Au     16.06383694     22.93800230     19.51717189
 Au     18.43554241     20.71167697     24.43268032
 Au     16.09395462     17.10973057     20.39700111
 Au     24.49912419     21.06073039     16.29834902
 Au     25.72902649     19.90621743     18.84739623
 Au     23.07666777     23.66500522     17.03154196
 Au     25.06669150     21.79696402     21.15598698
 Au     23.42744366     24.12002262     20.03372732
 Au     24.51474434     18.03835463     16.75460041
 Au     21.86239087     21.79713498     14.93874972
 Au     21.88766481     16.90682826     15.67697997
 Au     20.24842021     19.22988228     14.55472253
 Au     25.08231181     18.77458455     21.61223841
 Au     23.11756256     15.75231056     18.22603088
 Au     23.46833859     16.20732922     21.22821408
 Au     20.79070737     24.85642793     18.67412592
 Au     18.82595653     21.83415619     15.28791730
 Au     18.16362348     23.72490149     17.59650711
 Au     22.78073005     22.98838924     22.79856781
 Au     22.80600771     18.09807558     23.53680116
 Au     21.38354797     20.70234820     24.26999502
 Au     18.51440238     24.17992024     20.59868805
 Au     19.74430110     23.02540543     23.14773602
 Au     18.85123270     16.94383878     16.02614941
 Au     20.84125936     15.07580032     20.15059424
 Au     18.20451542     15.81220549     18.79099416
 Au     16.54965064     21.15764977     17.21247882
 Au     16.56526707     18.13526483     17.66873415
 Au     19.76957392     18.13509453     23.88597094
 Au     18.55529371     16.26722422     21.79318069
 Au     17.11721811     21.89387819     22.07011865
 Au     15.90293372     20.02601380     19.97732554
 Au     17.13283702     18.87149975     22.52637224
 Au     17.34106582     19.29194085     15.06535691
  O     29.57806624     25.93116209     33.49063600
  H     30.48866009     25.62748165     33.50467330
  H     29.12009455     25.53647876     32.74492358
  O      5.29362364     35.96753394     23.37683913
  H      5.38871791     36.91899408     23.29151220
  H      5.33995815     35.72271462     24.30394032
  O     22.87496427      1.95091751     21.07660780
  H     23.39949488      2.17924548     20.30567721
  H     22.80935058      2.71299850     21.65671762
  O      7.78702570     10.52893570     30.24754140
  H      7.47526995     11.42151371     30.41401317
  H      7.95231108     10.41714126     29.30850852
  O     11.17866328     38.06728226      1.49951717
  H     11.87181583     38.55252402      1.95303672
  H     10.39550053     38.61798593      1.42893688
  O     30.01518002     28.65643673     38.42095613
  H     29.72648486     27.75227720     38.56500705
  H     29.62331896     29.22768928     39.08557288
  O     39.31748035     13.35474482      2.17214245
  H     38.66455626     12.70747628      2.44842776
  H     39.94607404     12.94139854      1.57580795
  O     14.48207542     26.01447429     16.93759527
  H     13.90212277     25.50150569     17.50514981
  H     14.93124501     25.42801243     16.32448095
  O     31.66125967     19.93241682     24.24867984
  H     32.31964526     19.25271785     24.41035151
  H     31.01572707     19.92874169     24.95922481
  O     18.29764612     18.17727030     38.93142324
  H     19.22564544     17.94152512     39.00100395
  H     17.89964767     17.69962599     38.19994997
  O     39.60654221     36.42860878     33.73647776
  H     38.98010625     35.70253463     33.69181986
  H     39.88231080     36.66897260     32.84890978
  O      7.61120293     30.15235660      7.56070008
  H      8.05309625     30.37471563      6.73796880
  H      6.82505739     30.69451053      7.65890559
  O     29.50442296     32.22071741     27.44535804
  H     29.42040957     33.16474738     27.29255371
  H     30.22424181     31.87287490     26.91388234
  O     36.23235259     15.53337659      9.23424132
  H     35.49960837     15.97845928      8.80228378
  H     36.50099491     14.77548562      8.70980582
  O     21.14085597      5.44425993     31.23674384
  H     21.42738867      6.28554735     30.87379137
  H     21.40985036      4.73376927     30.64984944
  O     18.39238646      6.52373061     21.22437237
  H     18.27513379      7.09465640     21.98719316
  H     18.74568355      5.67759041     21.50867492
  O     22.87366467      4.14840561     12.73206908
  H     23.14739127      3.68931975     13.52951119
  H     23.35079018      4.97834645     12.66030936
  O     11.32635819     22.85727257     21.48495118
  H     11.34778998     22.07590170     20.92763597
  H     10.41460568     23.10991725     21.64767186
  O     16.35992215      0.91436843     22.92518320
  H     16.35762795      1.84790660     22.70135020
  H     16.65417781      0.40383913     22.16730891
  O     32.69979779     32.23082815     26.41873608
  H     33.20038784     32.86230339     25.89696159
  H     32.91993168     31.33891862     26.14009930
  O      7.27811121     18.96770849     32.21597850
  H      7.14244898     18.49063929     31.39402915
  H      7.85017120     18.45615702     32.79274749
  O      0.22579725     12.64048598     28.54512708
  H      0.93424079     12.69998441     27.90001648
  H      0.11761655     13.48873903     28.98143396
  O     39.65387971      2.29585999     34.20489846
  H     38.71496662      2.41351386     34.04303498
  H     40.07974534      1.97910901     33.40495641
  O     16.82965478     16.30764855      7.10342460
  H     17.13602137     15.55262433      7.61104448
  H     16.52749638     16.99481954      7.70183612
  O     37.36771231      6.84171636     20.00605701
  H     37.48983695      5.94503450     19.68567096
  H     37.40254593      6.84676455     20.96541155
  O      1.46517348     11.90430968     35.19749081
  H      1.68987667     12.82115827     35.02285651
  H      1.13433675     11.49675878     34.39371887
  O     11.61525382     12.41919770     38.23572376
  H     10.71940849     12.09769783     38.11042816
  H     12.05959942     12.46900180     37.38620828
  O      1.43705256      3.35907632     35.56946583
  H      0.94101535      2.59043970     35.27835616
  H      1.65011107      3.90876775     34.81180798
  O      7.93180682      1.08003814      8.63031322
  H      8.85158269      0.80529098      8.61907226
  H      7.60145760      1.05696308      9.53138866
  O      4.04222344      2.73315542      0.54454980
  H      4.26095360      3.24153143      1.32896739
  H      4.13635489      3.28779506     -0.23334103
  O     28.47167229      1.00470426     32.56566275
  H     27.74153220      1.01869722     33.18879968
  H     29.28764811      0.81001272     33.03243751
  O      7.20405561      3.00340489     15.24297599
  H      6.73398071      2.18118984     15.08615762
  H      7.18363329      3.21049192     16.18015148
  O     32.77804970     36.97831885      4.81458862
  H     32.89542211     36.41981855      5.58653495
  H     31.85890267     37.24797560      4.75091774
  O      6.10915263     18.59019230     39.83372401
  H      6.39010494     19.20081638     39.14830148
  H      5.20702343     18.30981287     39.66298943
  O     14.89825857      3.49152897     28.66504136
  H     15.64763793      3.09904293     29.11889737
  H     14.24758046      2.81203869     28.47396294
  O     11.28686680     38.39470284      9.58270492
  H     10.84811263     38.96573917      8.94787243
  H     11.38725530     37.51656002      9.20802194
  O     16.72783468      1.81019335     39.04881835
  H     17.53792444      1.73913239     39.55901922
  H     15.97422354      1.81774533     39.64347222
  O     28.34425697     11.99133724      1.17436017
  H     28.71321203     12.24698848      2.02295584
  H     27.74620628     11.25015878      1.29514871
  O     15.70186027     32.96438284     10.43774698
  H     16.16611961     33.64018359      9.93839078
  H     15.17315772     32.43071088      9.84002811
  O     30.32942546     23.46600523     17.18439647
  H     30.07257042     23.28415908     16.27744693
  H     30.36913108     22.64318048     17.67732942
  O      0.43946719     31.21498479     14.16671446
  H      0.32297599     31.99388293     14.71566572
  H      1.09632412     31.39507206     13.49017358
  O     36.29736091     32.36787355     13.33167851
  H     37.22190478     32.44050702     13.57975715
  H     35.76853656     32.19311292     14.11360149
  O     14.29578659      9.79009045     35.02864045
  H     14.31208116     10.53449258     35.63461072
  H     14.95636325      9.91953747     34.34418304
  O      3.61993611     33.60446405     14.52649177
  H      3.62705232     34.54854976     14.35256210
  H      4.35484644     33.18888444     14.06954495
  O     36.43534174     32.63353029      1.80102380
  H     36.34698159     32.59703704      2.75625190
  H     36.75426721     33.50105094      1.54161201
  O     30.23258556     18.34553283     37.22099847
  H     29.88993751     17.74383013     37.88593921
  H     29.77700951     19.18804623     37.28597262
  O      8.25324971     -0.00536271     27.89102235
  H      9.09672639      0.45229789     27.86468093
  H      7.83049735      0.15037597     28.73874041
  O     14.05628132      0.17963111      8.32887916
  H     14.67760103      0.34392188      7.61573796
  H     13.70625948      1.01475845      8.64770049
  O     17.08195847     37.78396817      9.40420854
  H     17.51227182     37.05993743      8.94354607
  H     16.74261156     38.41420187      8.76448269
  O     11.62102512      9.48923565     13.08268686
  H     10.84652284      8.94609391     13.24622054
  H     11.75818957     10.08331028     13.82421315
  O      5.44895678     26.46748381     33.33171835
  H      5.88531064     26.81461968     34.11318620
  H      4.69264264     25.93829296     33.59543403
  O     27.48577929     29.84153698     28.62281047
  H     26.89722453     29.87797986     29.38035599
  H     27.76516823     30.73025363     28.39102494
  O     19.90525773     31.97690440     13.78270969
  H     18.97961951     31.81623468     13.58527834
  H     20.33470884     31.14701324     14.00282880
  O     29.69442723     20.34280005     16.83582118
  H     30.44658220     20.46199032     16.25130722
  H     28.89208551     20.26690765     16.31420051
  O      7.02102568     22.35611323     20.34826510
  H      7.78166246     22.40806821     19.76488497
  H      6.21793645     22.30959342     19.82435328
  O     15.69082846      9.32224624     26.80478586
  H     16.30999593      9.94511286     27.19243108
  H     16.15674826      8.74358572     26.19678031
  O      1.42484807     19.29167475     32.08146878
  H      2.36896627     19.13405944     32.00799611
  H      1.03780660     19.33415335     31.20397549
  O      7.69322605     22.13006133     26.75175000
  H      7.71231751     21.39989691     26.12877694
  H      7.33824891     22.91052726     26.31993503
  O     31.10144718     26.69255127      3.93060588
  H     31.67825186     27.36386570      4.30240327
  H     30.97027639     25.99125513      4.57292819
  O     20.24505114     30.66853217      1.13583843
  H     20.93413139     31.23284550      0.77762219
  H     19.45284000     30.75051104      0.59985245
  O     29.90189002      3.18116257     14.17392894
  H     30.42842185      2.37868870     14.15393109
  H     30.02676768      3.66685898     13.35532979
  O     16.92584912     12.11607253     36.75486284
  H     17.17315017     11.21909753     36.99124821
  H     17.63015125     12.51776439     36.24085684
  O     30.51188771     25.71138579     26.08471177
  H     30.01066794     25.92018845     26.87640628
  H     30.78887766     26.52494283     25.65692502
  O     20.03685398     24.75877087      8.99438229
  H     20.10100007     25.03338888      8.07673844
  H     19.97058396     25.53383889      9.55694593
  O     32.38341760     26.38772994     39.26800673
  H     32.18860243     25.44770628     39.26961019
  H     33.19549601     26.54586468     38.78105492
  O     12.35129397     14.48634662      2.49783402
  H     13.10438943     14.45350271      1.90338595
  H     11.59786717     14.05845186      2.08448896
  O     22.03382505     16.45150692     25.34598872
  H     21.53224263     16.95869681     24.70351420
  H     22.68987809     15.91801332     24.89147911
  O     22.51244547      3.85260143      9.19727796
  H     21.72311363      3.80004096      8.65340973
  H     23.28792979      3.89705872      8.63314357
  O      0.21706147     10.30528211     12.21555664
  H      1.14510601     10.43534261     12.42392553
  H      0.04347290     10.61019422     11.32197082
  O     26.07640506     30.53479291     21.56524883
  H     26.83337131     30.38390388     22.13606807
  H     25.53903644     29.74011660     21.52885478
  O     21.26671512      8.37963940      1.18792710
  H     20.74794720      8.83519946      1.85496900
  H     20.71851803      8.20550004      0.41932094
  O     10.78441383     35.42644281     28.70666185
  H     10.99466944     36.10535486     29.35200749
  H     10.52051916     34.62305460     29.16111426
  O     28.91532163     29.53938490     27.04593830
  H     29.17580421     28.85872465     26.42107796
  H     28.73591772     30.35591441     26.57403385
  O     35.77394240     28.34800613     12.17125262
  H     36.13568635     27.53757746     11.80526534
  H     34.81528732     28.29745193     12.17622349
  O      8.51687332      4.52581309      7.46509797
  H      8.34887168      4.50325055      8.41001404
  H      9.43000257      4.28245424      7.29606711
  O     32.66090137     11.48163635     18.47080667
  H     31.72551179     11.68841165     18.40843436
  H     33.16179095     12.29309905     18.58143178
  O      9.48835675     36.32410418     34.20893611
  H      9.69140454     36.08438851     35.11607888
  H      8.58767375     36.06372447     34.00260498
  O     17.22351609     19.72135477     28.48692741
  H     16.87322517     19.88706149     27.60861222
  H     18.15339136     19.49148428     28.42296226
  O     28.91585575     29.80392982     32.92670748
  H     28.00242034     29.99649050     33.15066315
  H     29.49830282     30.35374543     33.45591275
  O      7.67025989     16.78266311      0.11461816
  H      7.76878834     17.67951111     -0.21333885
  H      8.52311149     16.45285632      0.40697349
  O     13.86645119     18.28758968     19.20571397
  H     13.82343975     18.62125199     18.30659247
  H     14.75720565     18.39803429     19.54624076
  O     25.82192713     23.43233567     31.49038307
  H     25.56994336     23.79147785     32.34426895
  H     25.68792404     22.48173419     31.49038084
  O     29.10452776     14.44982403      0.70512275
  H     28.37735583     13.99211899      0.27695562
  H     29.73681250     13.80776280      1.03614147
  O     14.09970424     31.40219593      3.46986360
  H     13.75434272     32.24426371      3.77522779
  H     13.52710117     30.69287246      3.77083858
  O     28.98078705      5.54247708     15.88602250
  H     29.11451127      6.25514074     15.25687359
  H     29.47364125      4.76869589     15.60325509
  O      3.68222724      6.85419935     37.60899420
  H      2.87213268      7.16478375     38.01994935
  H      3.77361927      7.25186280     36.74002281
  O     10.75587367      6.98953530      5.14942346
  H     11.32756670      7.26998149      5.86783630
  H     10.13925655      6.32742983      5.47035909
  O     14.46373462     12.88291493     15.30123591
  H     15.41169696     12.88787624     15.14976719
  H     14.00571224     13.03064216     14.47057823
  O     10.43922408     16.72365220     11.14343626
  H     10.96576000     16.51241692     11.91786481
  H     10.29256151     15.92679102     10.62855535
  O     30.42521966     39.63326310     39.63431579
  H     30.11606138     40.49151418     39.93335800
  H     31.34950936     39.69550690     39.38249390
  O     20.14724824     17.34733744     36.32301353
  H     19.56124537     17.40652828     37.08110131
  H     20.15658991     18.18759870     35.85882202
  O     23.39042919     38.26279009     29.08353964
  H     23.57639861     37.50426224     29.64179664
  H     23.98618961     38.98081322     29.30961997
  O     27.22703485     10.77937011     25.30088931
  H     27.34314863     11.68382235     25.00074980
  H     27.99971565     10.26135263     25.06377695
  O      2.14891018      8.42482079     12.15286849
  H      2.41006985      8.63445328     13.05256280
  H      1.19676181      8.30847712     12.11442852
  O      4.51523323     30.02204311     38.42629851
  H      5.11689697     29.27824429     38.34652339
  H      4.64957430     30.62327978     37.69004655
  O     23.10604184     18.02516890     32.03733083
  H     23.17512776     17.67671391     32.92918635
  H     23.50438056     17.40716886     31.42007706
  O      4.92970451      0.65370439     12.46118575
  H      5.43247817      1.26803279     11.92135312
  H      4.38024962      0.10586281     11.89588146
  O     10.46541931     34.22521383     32.72891218
  H      9.58301579     34.29915435     33.09971783
  H     11.02338138     33.72290205     33.32721078
  O      2.42002434      5.53248455     24.06386441
  H      1.64059535      5.56704915     24.62323525
  H      3.20591035      5.47680406     24.61239232
  O     37.26179462      5.58543815      1.64850277
  H     37.43270027      5.34792249      0.73418468
  H     36.33404264      5.80868643      1.75355743
  O     38.58846641     20.34494555      4.74133830
  H     39.31541595     20.45390372      5.35881096
  H     37.78011620     20.16430998      5.22666367
  O     18.65354401      2.45629595     24.07926768
  H     18.26416132      1.74606530     23.56394881
  H     19.06109185      3.09430605     23.48897295
  O     30.34172358     11.54731766     12.37096577
  H     29.55412539     11.75257195     11.86188840
  H     31.10864851     11.55950190     11.79366369
  O      9.94377485     37.98476776     26.73570961
  H      9.96264667     37.60722288     27.61815152
  H     10.75811458     38.46747521     26.57619686
  O     13.19018102     16.34656288     39.58609330
  H     13.15469148     17.05931410     38.94396699
  H     13.40004002     15.52307369     39.13952331
  O      2.68189295     15.12389773      6.58909089
  H      2.39039761     14.21034979      6.54369668
  H      3.33438328     15.28649450      5.90394955
  O     38.34471323     36.22101091     27.76852194
  H     38.05993576     37.13744090     27.79417092
  H     37.81572899     35.73884644     27.12876174
  O     38.70893433     23.25545097     13.87667322
  H     37.92182394     22.80748989     14.19508821
  H     39.36615853     23.28436079     14.57583027
  O     34.62438303     14.40917346     10.92024724
  H     34.54256412     14.36611050      9.96471008
  H     35.36870398     14.96890622     11.15323987
  O     19.32354244      0.43510113     26.70663418
  H     18.72101284      0.80259520     27.35740772
  H     19.04929477     -0.45756969     26.48408748
  O      2.66166064     34.50867086     17.94322981
  H      3.59069042     34.65994127     17.75449472
  H      2.35691369     35.15120204     18.58811971
  O     20.35486200     37.07633524      9.30525882
  H     19.79313212     37.63982892      8.76810483
  H     21.00484223     36.64497645      8.74574537
  O     16.17907391     17.44613192      9.62970505
  H     15.52493835     18.11583359      9.84232288
  H     16.82491625     17.39273897     10.33796832
  O     28.14704332     21.46155813     13.41761429
  H     28.39007214     20.58662656     13.10611512
  H     28.86539068     22.07438774     13.24436027
  O     38.47401130     30.30393699     37.07453697
  H     38.78535638     31.13001060     37.45171944
  H     37.52843250     30.35926635     36.91826990
  O      7.66363514     12.46418706     18.45528898
  H      8.56206217     12.13522669     18.53411762
  H      7.22422941     12.02405677     17.72398334
  O     38.75785260     20.60008002     15.61415952
  H     39.02693555     20.54296346     14.69441386
  H     39.37801225     21.15239114     16.09577600
  O     10.83572025      9.81992660      5.25390049
  H     11.54153119     10.19080069      5.78858109
  H     10.58950133     10.44614524      4.56919145
  O      6.77895717     33.28396457      3.11530886
  H      6.71292069     32.42714462      3.54320928
  H      6.67532830     33.97810710      3.77031054
  O     32.93094943     17.45617297     20.74605237
  H     32.98098270     18.15572217     21.40158847
  H     33.18839998     16.62260202     21.14665030
  O     21.00175910     16.12257256     13.14709242
  H     21.80989256     16.60975345     13.32365716
  H     20.79655660     15.55965519     13.89716972
  O      4.55699489     37.20367508     19.32576290
  H      4.10138712     36.48015170     18.88925919
  H      4.10866638     38.02956660     19.12953666
  O     13.91002852     20.40797623     36.98741279
  H     13.99909111     20.32134188     36.03548719
  H     13.33099162     19.71788684     37.31921530
  O     18.50453347     23.99750273      7.43072176
  H     18.15845970     24.87367253      7.61554445
  H     18.63672617     23.52459159      8.25563397
  O     31.83729492     32.92559166      1.55845680
  H     31.60792357     32.86080525      2.48839847
  H     31.03896636     33.04639521      1.03915147
  O      5.07465411     17.15778706      2.75457324
  H      5.70876633     17.69295320      2.27177007
  H      4.63076553     16.56117206      2.14743778
  O      9.21602957      6.03126161     13.82132120
  H      8.38062312      5.58120356     13.67591208
  H      9.10528063      6.70109857     14.50003552
  O     12.86860672     17.08823967     16.84263374
  H     13.57667064     17.65024384     16.51952879
  H     12.50864507     16.57597043     16.11489214
  O     31.58725795      0.42307255      4.62288783
  H     32.27435967      0.89607033      4.14774118
  H     31.34877934     -0.36949182      4.13650354
  O     30.32852329      0.60665104     18.98232745
  H     30.12725893     -0.12750533     18.39742825
  H     29.64597013      1.27690951     18.90186142
  O     23.80575612     10.40694128     37.66302031
  H     23.18912188     11.11610029     37.85912160
  H     23.83259157     10.25864495     36.71492323
  O     16.30435401     32.86838340     14.77455039
  H     16.72021932     32.11663742     14.34614167
  H     15.60784713     33.21339250     14.21112613
  O      3.19122745      4.52364055      3.61959395
  H      3.41194291      4.62415484      4.54845431
  H      2.32702540      4.90673943      3.45229158
  O     30.49833128      8.48793708      9.83047706
  H     30.76866009      9.31916401      9.43350838
  H     30.51480608      7.79518456      9.16608069
  O     29.27889133      7.04493777     11.38525117
  H     28.61696335      6.76824194     12.02313107
  H     29.03235330      6.73253199     10.51162560
  O     26.65827170     24.01875985     37.88185240
  H     26.17911482     23.95632038     37.05232845
  H     27.59077107     24.16085665     37.70337708
  O      7.78970829     24.57092231      7.21713698
  H      7.21324591     24.90802096      7.90681490
  H      8.51761567     25.18181632      7.08090423
  O      0.73846093     35.40423474     36.61615535
  H      0.37282551     34.73579712     37.20019464
  H      1.13693503     36.10360677     37.13931609
  O     13.19151210      8.06303891      3.10499922
  H     12.64748883      8.80113424      3.38934755
  H     14.11487282      8.25974434      3.27910249
  O      6.28814613     32.90921973     21.01059444
  H      6.54211370     33.78225432     20.70251803
  H      5.71194768     32.49606813     20.36336874
  O      0.34427799      7.34598093     37.94309672
  H      0.11051827      8.26840596     38.06993708
  H      0.83919379      7.03327284     38.70393310
  O     20.17785155     14.76348580     39.58676326
  H     20.98840352     15.11879746     39.21479667
  H     19.85297287     14.05374196     39.02790950
  O      3.47981413      5.83039848      9.46115745
  H      2.67723384      5.32630769      9.61398857
  H      3.27994155      6.76879414      9.49378451
  O     33.53630620     36.95723873     36.82799494
  H     34.31473975     36.94111832     36.26640670
  H     32.74690742     36.95297218     36.28170622
  O     19.25370526     23.82475471     19.16930307
  H     19.73552290     23.36388927     18.47861153
  H     19.00500884     24.69828761     18.85835231
  O      6.63834241      9.30547102      7.39552891
  H      6.58371576      8.37215242      7.61354800
  H      6.39832891      9.82861103      8.16385050
  O     12.11475985     39.97153716     11.71122293
  H     12.44421202     39.14150996     11.35892176
  H     11.88916311     40.55999795     10.98705443
  O      9.06662381     12.40115960     28.21821685
  H      9.73295679     12.05772047     28.81792505
  H      8.33704531     12.76567397     28.72462034
  O     14.40880449      6.10717415      3.18744528
  H     13.77438941      5.90805230      2.49500901
  H     15.24961127      6.34851373      2.79197193
  O     39.27293763      9.52309604     10.11869455
  H     39.48698666      9.58609158     11.05240466
  H     39.17958929     10.40500988      9.75111589
  O     16.52628336     26.93078767     40.24312426
  H     16.10239399     27.57711145     39.67375322
  H     16.91766534     26.23816521     39.70582149
  O     14.21744117     23.11027270     11.31598417
  H     14.94168455     23.04035734     10.68973870
  H     13.38246063     23.01220361     10.85252980
  O     35.37922778     14.95681209      1.14622936
  H     34.80321301     14.42187941      0.59518126
  H     35.88774228     15.55425047      0.59298404
  O     20.17058309     22.11845836     25.61026071
  H     19.81641957     22.84584406     26.12705685
  H     20.33797182     21.36833220     26.18549263
  O     12.67880856     24.64543018     15.08916521
  H     13.46024388     24.19642350     15.41984912
  H     12.00367024     24.65814206     15.77153363
  O     13.99302529     31.21586849      6.26028040
  H     13.98748814     31.15879568      7.21856639
  H     14.89972513     31.22343131      5.94494215
  O      6.20780967      5.22626758      9.28745219
  H      6.11303869      4.44811784      8.73328484
  H      6.30256839      6.00457254      8.73350076
  O     13.30376388     23.83064079     27.05066256
  H     13.10713501     24.61744647     26.53697596
  H     13.33590272     23.06777365     26.46876839
  O      3.64465162     27.81895163      9.58070509
  H      2.70844576     28.02154023      9.64455216
  H      3.75922096     26.87825848      9.42717901
  O     24.38839881      1.03001272     34.54895240
  H     24.94628695      0.47974345     35.10353743
  H     24.44810985      1.94289552     34.83994996
  O     19.43241961     40.00772813     11.23077534
  H     19.07678592     39.11969090     11.15006255
  H     19.80901415     40.27969372     10.39064959
  O     31.50602994     27.08196281     29.32843455
  H     31.69501638     26.97759807     30.26384468
  H     31.16859831     26.25541318     28.97551019
  O     39.84232300      7.68005269     27.14747719
  H     39.38044602      8.51733551     27.23248978
  H     40.50802773      7.60998945     27.83561116
  O     28.40122034      2.22675514      8.21882082
  H     28.63072065      2.44587845      7.31277745
  H     27.74345575      2.84696975      8.54174431
  O     35.66454372      2.63694417     10.38432196
  H     35.13313964      1.98842738      9.91673702
  H     35.67099031      3.46103560      9.89194835
  O     25.73342966     22.87479263     13.27499603
  H     25.67128272     22.79119192     14.22932757
  H     26.63726140     22.70925247     12.99699486
  O     17.90234801     29.24695794     20.99094883
  H     17.91513376     30.09763020     20.54620933
  H     17.55525440     28.57903425     20.39512673
  O     38.77834884     14.22770833     25.96946136
  H     39.20202344     13.61646451     25.36243514
  H     38.28750454     14.88542404     25.47138314
  O      5.95172902     11.76361780     15.15073347
  H      5.15163081     11.72320536     15.67970387
  H      6.71343238     11.85322145     15.72812344
  O     34.15108510     12.32885877     30.63658296
  H     34.94794532     12.83787152     30.80247394