#B3LYP/6-31+G(d) OPT FREQ

3055, Energy =      0.00000000 au

0 1
 Au     21.24075886     18.69117211     20.55193769
 Au     22.12738602     21.15675610     21.49205333
 Au     22.59183130     20.30539787     18.73042514
 Au     23.98510780     18.96618323     20.92869662
 Au     19.87938604     20.93762349     19.63044448
 Au     22.13375169     18.77072898     23.18732458
 Au     19.59627621     19.98914647     22.38495947
 Au     22.88524303     17.39320214     18.71891415
 Au     20.34776743     18.61161923     17.91655021
 Au     22.60213383     16.44472316     21.47343366
 Au     18.49640959     18.41616580     20.17517763
 Au     19.88968465     17.07695038     22.37345250
 Au     20.35413171     16.22558813     19.61182205
 Au     23.02626648     23.65641477     22.44516149
 Au     23.96157574     21.94193245     16.88373904
 Au     26.76738401     19.24499504     21.31066239
 Au     18.49919887     23.21512113     18.69621611
 Au     23.03908579     18.85138533     25.85913286
 Au     17.92906658     21.30505900     24.24331387
 Au     24.55245419     16.07729405     16.86055799
 Au     23.98232318     14.16722800     22.40766484
 Au     15.71413306     18.13735888     19.79321070
 Au     18.51993842     15.44041991     24.22014089
 Au     19.45525125     13.72592945     18.65871389
 Au     23.57761673     22.95176537     19.63148233
 Au     25.03263227     21.55320642     21.92716615
 Au     20.74497377     23.61200706     20.57138460
 Au     23.09923837     21.34909114     24.28587904
 Au     20.44931968     22.62149992     23.44795996
 Au     25.51765586     20.66412622     19.04316276
 Au     21.23000583     22.72292280     17.68738390
 Au     24.36905508     19.02144491     16.73546284
 Au     21.71914163     20.29385117     15.89754542
 Au     25.03928002     19.06144953     23.69755835
 Au     25.82406996     17.62287845     19.03114655
 Au     25.52841535     16.63237331     21.90772050
 Au     18.10170626     22.39265731     21.50385881
 Au     18.88649363     20.95408745     16.83744620
 Au     16.95310211     20.74997280     19.19615860
 Au     20.45596871     20.12974410     25.21835095
 Au     23.59502502     16.42826191     24.26643172
 Au     20.76238090     17.08849986     25.20633279
 Au     16.65744980     19.75947038     22.07273173
 Au     18.11246379     18.36090788     24.36841421
 Au     22.02555137     17.25260250     15.88552410
 Au     24.37981640     14.98969013     19.60002038
 Au     22.03219719     14.76084267     17.65591740
 Au     17.44223572     18.32090122     17.40631866
 Au     19.38227767     16.03325185     16.81799805
 Au     21.25151450     14.65942421     23.41649538
 Au     21.73654394     13.77033715     20.53249511
 Au     16.96386070     16.71822259     22.06071532
 Au     17.44888339     15.82913877     19.17671292
 Au     18.90390044     14.43057986     21.47239631
 Au     19.44243475     18.53096692     15.24474133
  O     13.88357234     22.02267969     14.19422908
  H     13.64734663     21.60155448     15.02395855
  H     14.08853876     21.35019930     13.54050215
  O     13.19621702     36.88305886     24.29425748
  H     12.90962330     35.99047766     24.50104930
  H     13.45627439     37.33142465     25.10230345
  O     14.99671975     16.42901358      4.63119807
  H     15.75678215     16.77997635      5.10101750
  H     14.30718643     16.20391304      5.26006495
  O      9.84117164     23.67406574     11.60824282
  H      9.19400254     22.99532241     11.40310958
  H      9.40350396     24.41715954     12.02997567
  O     37.02871466      4.54318427     35.89368715
  H     36.49357494      5.31505454     36.09228669
  H     37.38894075      4.18480378     36.70818122
  O     33.63038249     29.26206814     15.72049422
  H     32.95209776     28.68031156     16.07133478
  H     33.23441008     30.09842493     15.46492980
  O      3.03288121      6.34817302      0.45769241
  H      2.55647084      5.56183407      0.73392458
  H      2.56622836      6.76670470     -0.26940205
  O     32.82127101     28.29896333     13.18618936
  H     33.59666701     28.29162538     12.62023247
  H     32.16020021     28.88874595     12.81640313
  O     34.07570735     17.21343134     30.58855111
  H     34.10359230     17.00501831     29.65186203
  H     33.16435617     17.34308053     30.86100313
  O     23.76556820     14.41001920     29.92546533
  H     24.45464204     13.95293503     30.41316535
  H     23.23928965     13.77100923     29.43936129
  O     39.61775884      1.55053256      7.20953827
  H     39.58728876      1.94857919      6.33648017
  H     39.52042575      0.59868679      7.13133401
  O     23.65536876     11.67159641     23.18340139
  H     24.57436397     11.50902264     22.95841790
  H     23.61025544     12.23306386     23.96078103
  O     26.87367174      6.80996804      0.85778620
  H     27.67464152      7.27562275      0.60636404
  H     26.88188261      6.64587930      1.80362311
  O      4.76979169     13.16850777      9.78209209
  H      5.21663947     13.45399948      8.98182866
  H      5.12453959     12.32167094     10.06248702
  O     30.88773153     16.33139112     25.16152626
  H     30.43047517     15.69809981     24.60344139
  H     30.63824553     17.22249078     24.90599125
  O     22.63614846      9.71398183     38.44370706
  H     22.74178385     10.61220051     38.12176859
  H     22.79990506      9.09565068     37.72785067
  O     28.91921959      8.68103380     34.09456910
  H     29.31484756      9.03614519     33.29521035
  H     28.72915641      9.39809901     34.70390765
  O     31.32126458     13.28240733     31.70143393
  H     31.05313270     14.13749919     32.04570594
  H     30.59183736     12.66301464     31.77817140
  O     15.28390659     12.08065059     26.25482857
  H     14.56647276     12.23314891     25.63544746
  H     16.12442304     12.16559763     25.79885039
  O      8.81013059      5.67044401      7.05128057
  H      8.63337545      5.79758530      6.11629784
  H      9.75519462      5.57200699      7.18826283
  O     19.88762365     34.78130450      9.20981208
  H     19.56275156     35.67153465      9.36326701
  H     19.73807152     34.53920313      8.29295817
  O     31.77016534     18.00106246     27.86892963
  H     31.13732889     17.46979945     27.38017853
  H     32.37821105     18.42014045     27.25553411
  O     26.84871921      6.20711020     20.52492785
  H     27.71446595      6.15448134     20.93640420
  H     26.20837393      5.73765606     21.06453022
  O     29.51896071     30.57766568     17.01580264
  H     29.87567133     30.44939942     16.13381324
  H     29.56810259     29.75278858     17.50443630
  O     23.50529640      1.68607179     21.51621553
  H     23.76992780      2.47941318     21.98757490
  H     23.41149597      0.96037369     22.13763628
  O      4.89796931      4.38802260      1.63822895
  H      4.04114806      3.99912333      1.82853057
  H      5.47959167      4.26661575      2.39226861
  O      5.87177281     23.57001251     28.76232541
  H      5.58341312     24.44978775     29.01618407
  H      6.80951991     23.58679615     28.55751160
  O     14.15627579     22.41070804      2.83083233
  H     14.52243895     21.53334384      2.96408619
  H     14.35041708     22.70684553      1.93852535
  O     18.45847400     17.86787392      8.77017337
  H     18.44935176     18.05437034      7.82850683
  H     19.34677370     17.62331098      9.03982614
  O     26.85082237      8.08826191     14.50619773
  H     26.66225172      7.56741344     15.29026276
  H     26.67340823      9.01436249     14.68636975
  O      0.68357251     28.37441523      4.55079232
  H     -0.25724966     28.46621021      4.38337870
  H      1.13465397     28.15397727      3.73254258
  O     37.30837385      5.67265372     27.77220837
  H     38.10134128      5.22813037     27.46366073
  H     36.53821595      5.14328145     27.55261371
  O     14.07945397     13.12948654      4.48540954
  H     13.86535579     12.33771563      4.98426904
  H     13.76362607     13.03533507      3.58375093
  O      4.29587885     17.77818476     25.40605810
  H      4.37905782     17.25890215     26.20919372
  H      5.13931009     18.18813852     25.20072506
  O     25.38805434     12.55018036     39.25727032
  H     25.94289146     13.15663136     39.75322693
  H     25.06241253     12.98715958     38.46694976
  O     11.67773627     37.53257283     31.90267695
  H     11.52572016     38.28919231     31.33169702
  H     11.82794170     36.75102114     31.36582010
  O     32.50418554      7.72924211      7.01898974
  H     33.24408069      7.58032972      7.61226899
  H     32.00821691      6.91397074      6.91435840
  O     34.80976531     24.92598358     23.43198285
  H     34.28041440     25.06382922     24.22089742
  H     35.68278802     24.61481251     23.68219062
  O     39.36663403     20.18384411     10.34722293
  H     38.93284285     20.41519709      9.52266183
  H     38.77574647     20.36465915     11.08190505
  O     36.12711503      4.87395005      1.47396903
  H     35.42696118      5.10710873      2.08798990
  H     36.91378954      4.62484172      1.96456892
  O     21.88261928     20.96981784     26.87406669
  H     22.80912350     20.94548470     26.62387110
  H     21.43495470     21.65967914     26.37880130
  O     40.76716392     15.58751823     25.48473803
  H     40.50047589     16.30934721     24.91076903
  H     41.01164087     14.82761614     24.95146527
  O     10.20493251     27.12757895     24.12364706
  H      9.26004414     27.29673069     24.13682470
  H     10.63410949     27.65338720     24.80256739
  O     32.36196581     20.38176683     29.22340823
  H     31.74906988     19.64647561     29.15057004
  H     32.40606019     20.84649695     28.38455091
  O     14.74502283     21.91759885     29.33498567
  H     15.57234992     21.47054046     29.14193468
  H     14.49569627     21.75055498     30.24686977
  O     19.86377389     29.63752031     28.33511767
  H     20.04624450     28.74730942     28.02555499
  H     18.98649170     29.90265862     28.04932468
  O     23.93258682      3.30461369     37.60673634
  H     23.04256475      3.11611855     37.30025582
  H     24.50903739      2.56839253     37.38928945
  O     32.53804590     17.49197111     10.18074668
  H     31.77316407     17.60043714      9.61084237
  H     33.33051915     17.42141254      9.64352454
  O     15.61224064     25.98947114      2.63913435
  H     15.19714356     25.32201910      3.19031689
  H     15.97207221     26.68508265      3.19433330
  O     12.49887438      2.03122831     22.52518388
  H     12.81829952      1.49074509     21.79892947
  H     13.20743892      2.16864484     23.15815544
  O     23.08628251     22.91510565     11.48471730
  H     22.56902390     23.55485052     10.98997490
  H     23.47048114     22.27672225     10.87935951
  O     18.69591827     22.64285253      5.88683110
  H     18.26323122     23.28777937      5.32251621
  H     19.16910306     22.00816405      5.34381480
  O     26.81254345     13.19680537      7.49547885
  H     26.60316241     12.66885491      8.26944777
  H     27.50294759     13.82684625      7.71454646
  O      9.19560606     30.16661190      9.64234980
  H      9.28668488     30.59058178     10.49882758
  H      8.92116544     29.25472092      9.76374659
  O     25.59694653     33.34984303     30.25392380
  H     25.26156856     33.55246700     29.37753054
  H     24.92579230     32.87836049     30.75277871
  O      1.52917347     36.54860888     11.56760091
  H      1.05468882     36.68373561     12.39113299
  H      2.47284639     36.52274354     11.74199246
  O     11.05715612      0.59933730      2.92852671
  H     11.82164374      0.82038058      3.46546111
  H     10.47481299      0.01864369      3.42377555
  O      0.10974224     31.70586793     13.00925780
  H      0.96568387     31.94158913     13.37449668
  H     -0.45889132     31.37923355     13.71037538
  O     25.91669706      4.71110489      5.00401318
  H     26.06905221      5.61196155      4.70931808
  H     25.21303423      4.70222398      5.65699079
  O     39.13639068     10.38668423     29.38659797
  H     39.35445940     10.71906562     30.26042212
  H     38.80274329     11.10527715     28.84446917
  O     27.23942363     22.90665184      0.63859121
  H     26.66986796     22.36144820      0.09090577
  H     27.70778847     23.53668020      0.08605284
  O     33.26875328     18.69525654     23.22246017
  H     32.55918287     18.44200016     23.81741483
  H     33.99800495     19.05893674     23.72993304
  O      8.10176619      3.61075521     24.49903519
  H      7.65632886      2.89510641     24.95841781
  H      8.55908916      3.26244231     23.73018291
  O     37.40101885     27.60047780     24.37995022
  H     36.53449403     27.69627158     24.78189335
  H     38.06668244     27.52522485     25.06757584
  O     32.95354607     24.42156193     10.39146747
  H     33.87771853     24.23889375     10.20670382
  H     32.40074798     23.82612067      9.88013199
  O      5.19253587     36.69371611      9.92962276
  H      5.55509911     36.83865647     10.80662915
  H      4.36249537     37.16829541      9.84355736
  O     15.61117283     14.01407880      3.18073588
  H     16.55150508     14.14499695      3.32298811
  H     15.47798179     13.28882393      2.56602820
  O     28.22970381     14.86601394     39.36853372
  H     27.63521920     14.19061251     39.03383838
  H     27.99028631     15.08443376     40.27217748
  O     37.39362992     30.17183043     35.77320356
  H     38.27075205     30.29842083     36.14229930
  H     36.99489588     31.02654804     35.59412542
  O     19.63868040     31.58121843     24.25632574
  H     19.58494153     30.94809029     24.97595126
  H     19.06255589     32.32646882     24.44148083
  O     19.74358123     24.30037171     39.58668905
  H     19.75892751     23.49592685     40.11036164
  H     19.59676457     24.07939490     38.66407639
  O     29.65089025      5.51115552     39.76122476
  H     28.76912882      5.42493785     40.13090476
  H     29.69320296      6.29850918     39.21360825
  O     39.25331990      0.86792532     35.69200448
  H     39.47338011      1.54492736     36.33608658
  H     38.84844991      0.12056881     36.13825391
  O      6.85580661     16.42061335     29.42534052
  H      7.54329835     15.86403263     29.05228153
  H      7.14787232     17.33510522     29.42384104
  O      6.06732987     34.19118222      2.38871164
  H      5.96179732     34.82604378      3.10104140
  H      5.28772667     33.63323176      2.33861040
  O     22.58603119     22.35204934     32.91643996
  H     22.44882362     22.94239296     32.17194785
  H     23.51241191     22.36350382     33.16801015
  O     21.06596830     17.14567462     18.12759633
  H     21.49909190     16.28947287     18.09722323
  H     21.21517204     17.55002521     18.98540683
  O      4.57017872     14.42901961     14.77991821
  H      4.82230201     13.79953374     15.45946320
  H      4.56700819     15.31513601     15.14922523
  O     12.07784092      6.30240560     27.97632650
  H     11.98995812      7.18694836     27.61375137
  H     11.51146343      6.21399280     28.74639125
  O     14.96454352      2.31928417     21.79982355
  H     14.93330684      1.38821554     22.03163272
  H     15.12332505      2.84106216     22.58984644
  O     18.77496298     16.57100854      6.51804063
  H     17.92498870     16.76948953      6.11835448
  H     19.46485864     16.63794163      5.85383890
  O     24.62731965     35.52836053     31.92781858
  H     25.12290169     36.20699100     31.46364283
  H     23.69890163     35.59171467     31.69196641
  O     10.25346771      4.33732526      1.39141933
  H     10.31948579      4.24253020      0.43839493
  H     10.26179485      5.26915835      1.62210907
  O     30.80472901     25.47067609     26.60512453
  H     30.00792035     25.60479081     26.08675284
  H     31.25946076     24.68374158     26.29600789
  O     18.49216553     21.11875254     34.91058315
  H     17.89433397     21.42855454     34.22631701
  H     19.39205802     21.12387364     34.57626701
  O      5.27605375     34.18396040      6.61966751
  H      5.95002988     34.17083757      7.30317609
  H      4.73024071     34.96693445      6.72281678
  O     38.31469454     39.67837746     10.06637798
  H     39.12094556     40.19201570      9.97842892
  H     38.53569245     38.74930151     10.16424431
  O      9.88392068      9.31525663     10.43724236
  H     10.32286663     10.13125377     10.68838997
  H      8.94260735      9.39155836     10.60960030
  O     22.27235014      7.13207212     38.85696154
  H     23.03039003      7.65727370     39.12368017
  H     21.54512119      7.71403248     38.62445305
  O     15.03637242     27.23930576     22.11913177
  H     14.16168639     27.23574901     21.72351618
  H     15.53931564     27.98249725     21.77808261
  O      0.30066344     17.27284810     37.53891515
  H     -0.17549804     16.69703542     38.14166718
  H     -0.31860746     17.68158450     36.92978617
  O     34.40226520      6.54595941     35.72010050
  H     34.94967136      6.24998993     34.98910901
  H     34.62495206      6.04728500     36.50961579
  O      9.18638994     35.47732509     28.94364393
  H      9.08906694     35.45972885     27.98875199
  H      8.34899694     35.25171961     29.35531752
  O     32.76085280     -0.23659345      8.30510060
  H     32.42451696      0.20754648      9.08690488
  H     32.36239131      0.14872190      7.52128907
  O     27.25092995     37.41986236     17.12280636
  H     27.62877050     36.56888565     17.35663357
  H     26.54015949     37.63313148     17.73183973
  O     12.69525232     38.51693075      8.61277014
  H     12.95506228     37.59384882      8.56784206
  H     12.28417758     38.77481670      7.78445112
  O     31.98592283     15.04058064      0.94679510
  H     32.04616171     14.59481424      0.09870100
  H     32.74765367     14.81125520      1.48417389
  O      7.75078688     32.76922462      1.78821954
  H      7.89391032     32.34525297      2.63755088
  H      8.57382811     33.15567284      1.48022456
  O     37.28530667     28.95316927      1.96674309
  H     37.51933305     28.02486661      2.03805800
  H     37.38035531     29.37439574      2.82414266
  O      4.95522442     33.33693140     31.63650343
  H      4.82606813     33.71603745     30.76403723
  H      4.47757185     32.50654439     31.69899695
  O      3.52161161     24.75456137     22.40590376
  H      2.59748039     24.54071436     22.55372438
  H      3.66425599     24.93205395     21.47330043
  O     38.31009870     37.65834064      6.58792674
  H     39.08744185     37.69418308      6.02574088
  H     37.55377577     37.37124738      6.07105820
  O      7.20345129     32.92707456     14.28204475
  H      7.73615972     33.66791359     13.98375082
  H      7.58346386     32.56159073     15.08429909
  O     22.81400472     16.98517468      7.65311960
  H     23.35494959     17.75926935      7.82561920
  H     23.15534491     16.52023891      6.88570732
  O     17.02085194     15.92260438     16.06976111
  H     17.72515520     16.43410691     15.66488818
  H     16.83991008     16.26546999     16.94799981
  O     34.13881578     37.03922743     11.69265734
  H     33.75099959     36.18220978     11.50103440
  H     35.03183436     36.91996039     12.02415877
  O      5.66950763     38.10018348     12.35844480
  H      4.72349705     37.99885811     12.23039340
  H      5.88249783     39.03174607     12.45023981
  O     21.12012637     38.16075457     27.59279206
  H     21.97807929     38.17014673     27.16217788
  H     20.42985791     38.08253714     26.93021264
  O     39.11144474      5.79505964     29.90124809
  H     39.22819869      5.51871918     30.81317159
  H     39.85773255      5.49475207     29.37734935
  O     12.92764804     10.88611189     11.74238206
  H     12.64327040     10.79949807     12.65519497
  H     13.25386335     10.04021292     11.42672637
  O     17.46963537      8.39899715     20.61493250
  H     17.63318211      8.68418050     21.51688755
  H     18.20644457      7.86497436     20.30910271
  O     13.42995144     38.01311734     12.36324805
  H     13.14740189     37.52547555     11.58609219
  H     12.72792042     38.60523636     12.64279682
  O     15.08113917     35.78548153     36.52896076
  H     15.43842526     35.06328618     37.05086165
  H     14.18431194     35.57342023     36.26001665
  O     13.24581376      9.98805365     30.77681202
  H     13.04519367      9.82216512     31.70084264
  H     12.51605541     10.46120293     30.37038552
  O     20.69948581      4.39835582     12.42018422
  H     20.16378575      4.77818039     11.71992802
  H     20.17138440      4.31325647     13.21734606
  O     31.90224202     21.76440206     36.34960402
  H     31.08559649     22.21583762     36.57520548
  H     31.74424995     21.16240000     35.61869224
  O     39.17640638     13.77040209     23.44486650
  H     38.96801191     13.96841349     22.52891713
  H     39.28790179     14.58978122     23.93250019
  O     14.92725443     36.55149920     31.09269033
  H     15.69063114     36.28874434     30.57325227
  H     14.18946739     36.73662225     30.50702853
  O     33.74137135     24.15061131     28.69191527
  H     34.51673929     23.92865884     28.17120261
  H     33.06681195     24.52322067     28.11943656
  O     36.21187069      0.81667108      5.44351440
  H     36.26238554      1.59760362      4.88746348
  H     36.45619631      0.04229697      4.93141115
  O     19.69477461     15.00051296     34.09323694
  H     19.56048067     14.82307283     35.02708925
  H     20.57929638     15.34788039     33.95701246
  O      0.98561812     30.76535392      1.79894834
  H      1.11781925     29.84209705      2.02636780
  H      0.73587310     31.25645068      2.58511080
  O     31.89861109      9.82077953     33.34025425
  H     31.27205140      9.84711085     32.61339139
  H     32.45607645      9.04390635     33.25481169
  O     32.70225486     22.36897445     32.11322941
  H     33.36447108     22.72983719     31.51921952
  H     32.87691321     21.43636260     32.25927600
  O     29.98994586     14.05897973     20.21917975
  H     30.68216934     14.00297353     19.55639022
  H     30.02488695     13.28443833     20.78527582
  O     23.26112487     12.35898399     12.55670488
  H     24.00623082     12.61434674     13.10552816
  H     22.55322107     12.02512219     13.11259021
  O     32.95879591     35.80815447     22.95720990
  H     33.64821341     35.22538413     22.63058743
  H     32.64355112     35.48769243     23.80545798
  O      9.90738331     29.52781889     29.75678408
  H     10.25151963     29.26451438     30.61342925
  H      8.94790619     29.50203155     29.77518681
  O     13.36297386     19.03749972      2.35498874
  H     13.86683823     19.29871451      3.12925454
  H     13.50092845     19.67677639      1.65221289
  O     -1.10176360     18.97926705     24.06555123
  H     -1.22881328     19.32260880     23.17809710
  H     -1.06572363     18.02039687     24.03607068
  O      3.47390614      8.85324670     19.85372004
  H      2.73150352      9.45561942     19.76662551
  H      4.24355635      9.33595685     20.16392877
  O     11.61332544     15.09317793      2.26366724
  H     12.44280647     14.76603587      2.61939087
  H     11.27934496     15.79688068      2.82479066
  O     24.73921086     25.22698521      3.19877203
  H     24.94582793     25.88026427      3.87118251
  H     24.37780288     24.44134129      3.61560282
  O      6.91562266      8.02046818     13.92073306
  H      7.18364747      8.77279368     13.38803330
  H      6.67053622      7.29177839     13.34580364
  O      5.83123653     25.37120127     25.78170784
  H      6.68769686     25.30352168     26.21007120
  H      5.29476278     26.02280221     26.23910498
  O     39.54763733     30.87071805     34.49175870
  H     39.50424329     31.78954479     34.21703270
  H     40.32635706     30.45866598     34.11043382
  O      3.05158793      9.05596317     25.59530896
  H      2.67402060      8.31348528     26.07256099
  H      3.62251409      8.73023311     24.89563528
  O     24.42216990     16.34940659     11.76059079
  H     24.78962492     16.60618249     12.60949771
  H     24.30806380     15.39653413     11.73581440
  O     29.86445566     26.28572808     13.88629961
  H     30.04562824     25.57677554     14.50771960
  H     29.68636273     27.09663134     14.36829424
  O     23.90699472     12.94665904     18.49880135
  H     24.30953603     13.68006805     18.02798110
  H     23.25966030     13.28308132     19.12280312
  O      2.98195320     13.73212226     17.51984332
  H      3.56515547     13.33799667     18.17263742
  H      2.21556301     14.10725253     17.95975622
  O     31.65069467     40.92985614     20.48133777
  H     31.10972339     41.09546474     19.70575807
  H     32.46219254     40.48972327     20.21798580
  O     11.35735959     12.19326451     37.54025348
  H     11.03754676     12.74508923     38.25775556
  H     11.22783833     12.64743844     36.70446028
  O     26.57370910     36.87467773      8.88926198
  H     26.14813354     37.50807177      8.30676953
  H     26.64805098     36.02817188      8.44260648
  O     12.70379469      4.31154224     16.80937017
  H     12.04557097      3.62684171     16.66963205
  H     13.39270724      3.98007203     17.38999655
  O     20.50023592     16.75434340     28.11419287
  H     21.01796001     16.29288015     28.77798006
  H     19.82799610     17.28704199     28.54538405
  O     39.82760275     35.42726074     25.97468766
  H     39.99403511     34.79365774     25.27294162
  H     38.90083399     35.39442188     26.22292401
  O      9.52631391     38.71147680      9.25586096
  H      9.14828657     38.02570077      8.70051731
  H      9.90486903     39.39903582      8.70308739
  O     27.20913925      9.35633280     12.23420134
  H     27.75258746      8.91461811     12.89082313
  H     27.23327389      8.86077718     11.41234846
  O      9.83008901     35.66846127     37.72828031
  H      9.14315554     36.18109119     37.29592284
  H      9.98027004     34.85654596     37.23854652
  O     29.92443573      0.80942985     35.11498154
  H     30.87711316      0.80960011     35.23332712
  H     29.71392718      0.56633639     34.21044203
  O     39.60405575     29.49334905     29.90181347
  H     38.77015695     29.13309570     30.21234580
  H     40.22005777     29.55392763     30.63561981
  O     28.04564163      9.28066235     16.35997910
  H     28.06664201      9.85962368     17.12546115
  H     28.88769215      8.82694974     16.27815131
  O     29.01709469     33.22571955     22.37108252
  H     29.53345326     33.06369734     23.16400284
  H     28.44103523     32.47593129     22.20503116
  O      4.90691159      6.15571964     11.27564914
  H      5.62346771      6.47353421     10.72144590
  H      4.19024968      5.83764210     10.72173363
  O     19.48239892     12.81674498      1.80239448
  H     20.44203153     12.80476345      1.77869445
  H     19.18701345     13.16026037      2.64876591
  O      8.34310964      3.41544020      8.19945171
  H      8.37994623      4.30360324      8.56195617
  H      8.43065361      2.77554286      8.90971043
  O     28.45991994     20.43757509      0.54668424
  H     28.93055125     19.62280823      0.73710783
  H     27.99299946     20.72925166      1.33313834
  O     32.88829044      3.32600843     37.81898086
  H     33.33326227      2.84521556     37.11724139
  H     32.23480631      2.75729403     38.23265032
  O     19.52238291     22.41624279      0.94598921
  H     20.16398037     22.33691777      0.23629896
  H     18.63543241     22.34581929      0.58549045
  O     11.27751761     31.49652417      3.48378649
  H     12.02516794     30.92708284      3.67963225
  H     10.91539859     31.84293522      4.30260832
  O     34.69172593     15.29789508      3.22687935
  H     34.40189989     15.96904991      2.60466390
  H     34.30983152     15.47456345      4.08974954
  O     31.97789471     36.25118479     34.48413686
  H     32.46245960     36.85777691     35.04879860
  H     31.35009127     35.75332179     35.01290455
  O     12.74985359      5.68089304     11.12781683
  H     12.83458740      6.57723075     11.46098180
  H     12.94772866      5.05770411     11.83072579
  O     23.77359933     39.60763162     15.52693107
  H     24.44390295     40.03892126     16.06198463
  H     23.04130932     39.33848433     16.08631563
  O     23.82845747     11.42314137     17.06312196
  H     24.41822868     12.03977586     16.62319944
  H     23.11356781     11.18393155     16.46872189
  O     27.45047546     25.38833186     15.90184339
  H     28.12475738     24.96395938     15.36625782
  H     27.84293348     26.11014284     16.39839712
  O     38.28980706     29.92972340     21.27674446
  H     39.10532496     29.94659157     21.78295195
  H     37.54195068     30.02819305     21.87055803
  O      0.00168834      8.37132825     19.65332171
  H      0.80070297      8.88645599     19.51983375
  H      0.22473244      7.53657820     20.07170393
  O     39.50157412      9.16442148      8.27212600
  H     38.80598309      9.80680419      8.11370381