#B3LYP/6-31+G(d) OPT FREQ

6100, Energy = -94526.13830161 au

0 1
 C1     51.99000000     55.49000000     56.81000000
 C2     52.02000000     57.85000000     56.70000000
 C3     53.08000000     56.70000000     58.50000000
 N4     51.91000000     56.71000000     57.62000000
 C5     50.60000000     56.71000000     58.32000000
 C6     50.37000000     57.62000000     59.55000000
OS7     50.73000000     58.99000000     59.38000000
 P8     49.59000000     59.99000000     58.92000000
OM9     49.97000000     60.16000000     57.50000000
OM10     48.33000000     59.33000000     59.26000000
OS11     50.14000000     61.13000000     59.86000000
C12     49.17000000     61.80000000     60.68000000
C13     49.79000000     62.26000000     62.02000000
OS14     48.90000000     62.49000000     63.13000000
C15     49.41000000     61.99000000     64.28000000
O16     50.42000000     61.27000000     64.26000000
C17     48.50000000     62.18000000     65.49000000
C18     48.68000000     60.92000000     66.34000000
C19     47.69000000     60.72000000     67.48000000
C20     47.67000000     59.24000000     67.84000000
C21     46.97000000     58.97000000     69.17000000
C22     46.98000000     57.47000000     69.47000000
C23     46.66000000     57.18000000     70.94000000
C24     47.76000000     57.68000000     71.83000000
C25     47.64000000     58.60000000     72.80000000
C26     48.76000000     59.10000000     73.67000000
C27     48.80000000     58.41000000     75.03000000
C28     49.86000000     59.06000000     75.91000000
C29     49.92000000     58.39000000     77.29000000
C30     50.89000000     59.14000000     78.20000000
C31     50.34000000     60.53000000     78.54000000
C32     51.32000000     61.31000000     79.41000000
C33     52.57000000     61.71000000     78.62000000
C34     50.91000000     63.29000000     61.80000000
OS35     50.85000000     64.50000000     61.03000000
C36     52.11000000     64.97000000     60.87000000
O37     53.05000000     64.16000000     60.82000000
C38     52.17000000     66.39000000     60.33000000
C39     53.15000000     67.23000000     61.15000000
C40     53.67000000     68.48000000     60.44000000
C41     54.29000000     69.42000000     61.47000000
C42     55.27000000     68.66000000     62.37000000
C43     55.48000000     69.39000000     63.70000000
C44     55.73000000     68.36000000     64.80000000
C45     55.62000000     68.94000000     66.21000000
C46     55.62000000     67.80000000     67.24000000
C47     55.52000000     68.36000000     68.66000000
C48     55.48000000     67.25000000     69.72000000
C49     55.41000000     67.88000000     71.11000000
C50     54.09000000     68.61000000     71.31000000
C51     54.09000000     69.43000000     72.60000000
C52     54.14000000     68.52000000     73.83000000
 C1     47.48000000     38.72000000     37.64000000
 C2     48.92000000     40.48000000     37.03000000
 C3     48.12000000     40.32000000     39.27000000
 N4     48.59000000     39.55000000     38.12000000
 C5     49.70000000     38.65000000     38.49000000
 C6     51.04000000     39.19000000     39.06000000
OS7     50.97000000     39.91000000     40.30000000
 P8     50.97000000     39.12000000     41.66000000
OM9     51.66000000     40.05000000     42.57000000
OM10     49.55000000     38.85000000     41.94000000
OS11     51.83000000     37.83000000     41.43000000
C12     51.20000000     36.59000000     41.76000000
C13     50.55000000     35.83000000     40.59000000
OS14     49.45000000     34.97000000     40.97000000
C15     48.25000000     35.30000000     40.40000000
O16     48.00000000     36.46000000     40.06000000
C17     47.22000000     34.20000000     40.57000000
C18     47.70000000     32.83000000     40.09000000
C19     47.93000000     32.80000000     38.58000000
C20     46.65000000     32.98000000     37.76000000
C21     45.84000000     31.70000000     37.60000000
C22     44.46000000     32.00000000     37.02000000
C23     43.62000000     30.74000000     36.86000000
C24     42.17000000     31.05000000     36.60000000
C25     41.57000000     31.17000000     35.40000000
C26     40.12000000     31.48000000     35.20000000
C27     39.31000000     30.23000000     34.86000000
C28     39.73000000     29.68000000     33.50000000
C29     38.92000000     28.45000000     33.10000000
C30     39.35000000     27.97000000     31.72000000
C31     38.54000000     26.75000000     31.28000000
C32     38.94000000     26.31000000     29.87000000
C33     38.13000000     25.09000000     29.43000000
C34     51.65000000     35.18000000     39.74000000
OS35     52.24000000     36.04000000     38.74000000
C36     53.00000000     35.34000000     37.85000000
O37     53.02000000     34.11000000     37.84000000
C38     53.62000000     36.21000000     36.77000000
C39     53.73000000     35.38000000     35.48000000
C40     54.15000000     36.21000000     34.26000000
C41     54.08000000     35.36000000     32.99000000
C42     52.63000000     35.15000000     32.56000000
C43     52.46000000     33.99000000     31.58000000
C44     50.96000000     33.70000000     31.39000000
C45     50.72000000     32.34000000     30.76000000
C46     49.23000000     32.00000000     30.74000000
C47     49.01000000     30.56000000     30.26000000
C48     49.54000000     29.57000000     31.30000000
C49     49.35000000     28.12000000     30.84000000
C50     50.20000000     27.84000000     29.60000000
C51     50.12000000     26.37000000     29.19000000
C52     50.82000000     25.48000000     30.21000000
 C1     42.86000000     51.04000000     35.98000000
 C2     45.26000000     50.84000000     36.25000000
 C3     44.29000000     51.41000000     34.15000000
 N4     44.12000000     50.61000000     35.37000000
 C5     44.03000000     49.19000000     34.94000000
 C6     43.97000000     48.07000000     36.01000000
OS7     42.92000000     48.17000000     36.97000000
 P8     42.00000000     46.89000000     36.97000000
OM9     42.94000000     45.84000000     37.44000000
OM10     41.02000000     47.39000000     37.93000000
OS11     41.56000000     46.80000000     35.47000000
C12     40.41000000     47.57000000     35.11000000
C13     40.40000000     48.11000000     33.66000000
OS14     39.67000000     49.35000000     33.50000000
C15     40.49000000     50.38000000     33.15000000
O16     41.70000000     50.24000000     33.24000000
C17     39.85000000     51.71000000     32.83000000
C18     40.97000000     52.73000000     33.05000000
C19     40.58000000     54.19000000     32.81000000
C20     41.59000000     55.11000000     33.48000000
C21     41.17000000     56.58000000     33.42000000
C22     42.05000000     57.44000000     34.33000000
C23     41.68000000     58.91000000     34.22000000
C24     41.94000000     59.44000000     32.85000000
C25     42.69000000     60.51000000     32.53000000
C26     42.92000000     60.99000000     31.13000000
C27     41.71000000     61.75000000     30.60000000
C28     41.92000000     62.15000000     29.13000000
C29     40.69000000     62.88000000     28.59000000
C30     40.89000000     63.28000000     27.13000000
C31     39.66000000     64.02000000     26.60000000
C32     39.86000000     64.41000000     25.13000000
C33     39.93000000     63.16000000     24.25000000
C34     39.96000000     47.03000000     32.66000000
OS35     40.90000000     46.01000000     32.29000000
C36     40.68000000     45.57000000     31.01000000
O37     39.67000000     45.88000000     30.38000000
C38     41.63000000     44.46000000     30.60000000
C39     41.80000000     44.41000000     29.07000000
C40     42.90000000     45.36000000     28.60000000
C41     42.84000000     45.59000000     27.09000000
C42     44.06000000     46.37000000     26.58000000
C43     43.76000000     46.99000000     25.21000000
C44     43.01000000     48.31000000     25.40000000
C45     42.37000000     48.82000000     24.11000000
C46     41.74000000     50.20000000     24.35000000
C47     40.79000000     50.59000000     23.21000000
C48     39.52000000     49.74000000     23.26000000
C49     38.54000000     50.13000000     22.15000000
C50     39.12000000     49.77000000     20.78000000
C51     38.12000000     50.10000000     19.66000000
C52     36.90000000     49.18000000     19.74000000
 C1     28.47000000     51.57000000     50.51000000
 C2     26.31000000     50.95000000     49.70000000
 C3     27.77000000     52.23000000     48.33000000
 N4     27.33000000     52.00000000     49.71000000
 C5     26.66000000     53.18000000     50.29000000
 C6     27.46000000     54.49000000     50.51000000
OS7     28.15000000     54.93000000     49.35000000
 P8     28.28000000     56.50000000     49.19000000
OM9     28.61000000     56.88000000     50.57000000
OM10     29.27000000     56.55000000     48.11000000
OS11     26.78000000     56.74000000     48.77000000
C12     26.28000000     56.13000000     47.57000000
C13     24.97000000     55.35000000     47.84000000
OS14     24.36000000     54.77000000     46.66000000
C15     24.23000000     53.41000000     46.62000000
O16     25.06000000     52.64000000     47.10000000
C17     23.30000000     53.05000000     45.47000000
C18     23.07000000     51.54000000     45.36000000
C19     22.38000000     51.23000000     44.04000000
C20     21.91000000     49.78000000     43.93000000
C21     21.35000000     49.55000000     42.53000000
C22     20.76000000     48.15000000     42.36000000
C23     20.44000000     47.89000000     40.89000000
C24     19.84000000     46.53000000     40.66000000
C25     19.56000000     45.62000000     41.60000000
C26     18.96000000     44.27000000     41.35000000
C27     17.45000000     44.38000000     41.15000000
C28     16.76000000     44.81000000     42.45000000
C29     15.31000000     45.22000000     42.15000000
C30     14.55000000     44.06000000     41.50000000
C31     13.12000000     44.47000000     41.16000000
C32     12.41000000     43.35000000     40.39000000
C33     12.25000000     42.10000000     41.25000000
C34     24.06000000     56.32000000     48.61000000
OS35     22.92000000     55.81000000     49.35000000
C36     23.15000000     55.44000000     50.65000000
O37     24.17000000     54.87000000     51.04000000
C38     21.85000000     55.48000000     51.43000000
C39     22.08000000     55.26000000     52.93000000
C40     21.95000000     53.79000000     53.33000000
C41     20.49000000     53.35000000     53.20000000
C42     20.24000000     51.98000000     53.83000000
C43     18.78000000     51.57000000     53.63000000
C44     18.52000000     51.18000000     52.17000000
C45     17.04000000     50.94000000     51.91000000
C46     16.81000000     50.49000000     50.47000000
C47     15.31000000     50.49000000     50.14000000
C48     14.78000000     51.92000000     50.15000000
C49     13.28000000     51.97000000     49.85000000
C50     12.48000000     51.31000000     50.97000000
C51     10.98000000     51.48000000     50.74000000
C52     10.58000000     52.95000000     50.89000000
 C1     42.85000000     62.06000000     41.46000000
 C2     45.08000000     62.79000000     41.72000000
 C3     44.55000000     60.55000000     42.33000000
 N4     44.26000000     61.63000000     41.37000000
 C5     44.55000000     61.27000000     39.97000000
 C6     44.06000000     59.90000000     39.44000000
OS7     42.75000000     59.57000000     39.88000000
 P8     42.04000000     58.48000000     39.00000000
OM9     43.12000000     57.50000000     38.80000000
OM10     40.94000000     58.11000000     39.91000000
OS11     41.71000000     59.41000000     37.80000000
C12     40.55000000     60.24000000     37.93000000
C13     40.87000000     61.75000000     37.89000000
OS14     39.68000000     62.58000000     37.98000000
C15     39.65000000     63.54000000     38.94000000
O16     40.31000000     63.42000000     39.98000000
C17     38.49000000     64.51000000     38.72000000
C18     37.95000000     65.14000000     40.00000000
C19     38.69000000     66.37000000     40.55000000
C20     38.07000000     67.67000000     40.04000000
C21     38.79000000     68.91000000     40.58000000
C22     38.61000000     69.09000000     42.09000000
C23     37.18000000     69.50000000     42.44000000
C24     36.82000000     70.88000000     41.98000000
C25     36.41000000     71.87000000     42.78000000
C26     36.02000000     73.26000000     42.36000000
C27     34.67000000     73.68000000     42.94000000
C28     33.55000000     72.76000000     42.45000000
C29     32.18000000     73.23000000     42.95000000
C30     31.79000000     74.54000000     42.28000000
C31     30.41000000     75.01000000     42.74000000
C32     30.01000000     76.30000000     42.02000000
C33     29.80000000     76.05000000     40.53000000
C34     41.68000000     62.00000000     36.60000000
OS35     42.56000000     63.14000000     36.63000000
C36     43.90000000     62.89000000     36.54000000
O37     44.40000000     61.81000000     36.87000000
C38     44.67000000     64.20000000     36.53000000
C39     44.12000000     65.17000000     35.48000000
C40     44.73000000     66.56000000     35.65000000
C41     44.08000000     67.55000000     34.68000000
C42     44.42000000     68.99000000     35.05000000
C43     43.65000000     69.99000000     34.18000000
C44     42.15000000     69.86000000     34.42000000
C45     41.35000000     70.92000000     33.65000000
C46     39.85000000     70.73000000     33.87000000
C47     39.06000000     71.86000000     33.20000000
C48     39.28000000     71.84000000     31.69000000
C49     38.50000000     72.97000000     31.01000000
C50     38.80000000     72.99000000     29.50000000
C51     38.02000000     74.11000000     28.81000000
C52     36.51000000     73.82000000     28.83000000
 C1     70.49000000     53.77000000     53.81000000
 C2     72.18000000     53.22000000     55.37000000
 C3     70.06000000     52.23000000     55.61000000
 N4     71.04000000     52.68000000     54.62000000
 C5     71.53000000     51.58000000     53.75000000
 C6     70.54000000     50.70000000     52.94000000
OS7     69.61000000     51.36000000     52.06000000
 P8     70.07000000     51.65000000     50.57000000
OM9     69.20000000     50.71000000     49.83000000
OM10     69.81000000     53.09000000     50.49000000
OS11     71.60000000     51.31000000     50.46000000
C12     72.54000000     52.39000000     50.29000000
C13     73.90000000     52.14000000     50.98000000
OS14     74.76000000     53.31000000     51.04000000
C15     74.79000000     53.87000000     52.28000000
O16     73.75000000     53.99000000     52.93000000
C17     76.10000000     54.59000000     52.56000000
C18     76.56000000     54.33000000     54.00000000
C19     76.47000000     55.58000000     54.88000000
C20     77.61000000     56.55000000     54.55000000
C21     77.45000000     57.91000000     55.24000000
C22     77.62000000     57.86000000     56.76000000
C23     77.35000000     59.25000000     57.34000000
C24     77.36000000     59.30000000     58.84000000
C25     77.80000000     58.37000000     59.69000000
C26     77.74000000     58.45000000     61.19000000
C27     78.77000000     59.39000000     61.81000000
C28     80.20000000     58.95000000     61.48000000
C29     81.21000000     59.70000000     62.35000000
C30     81.08000000     59.23000000     63.80000000
C31     82.11000000     59.91000000     64.71000000
C32     81.99000000     59.37000000     66.14000000
C33     82.38000000     57.89000000     66.19000000
C34     74.55000000     50.90000000     50.35000000
OS35     75.32000000     50.11000000     51.27000000
C36     74.62000000     49.23000000     52.03000000
O37     73.39000000     49.15000000     51.93000000
C38     75.47000000     48.33000000     52.92000000
C39     76.98000000     48.60000000     52.84000000
C40     77.40000000     49.82000000     53.67000000
C41     78.92000000     49.94000000     53.70000000
C42     79.54000000     48.70000000     54.34000000
C43     81.04000000     48.86000000     54.57000000
C44     81.32000000     49.92000000     55.64000000
C45     82.80000000     49.95000000     56.00000000
C46     83.10000000     51.04000000     57.03000000
C47     84.57000000     50.99000000     57.45000000
C48     85.49000000     51.25000000     56.25000000
C49     86.96000000     51.24000000     56.65000000
C50     87.40000000     49.84000000     57.08000000
C51     88.88000000     49.82000000     57.46000000
C52     89.75000000     50.08000000     56.23000000
 C1     40.91000000     60.19000000     53.15000000
 C2     39.80000000     62.06000000     54.10000000
 C3     41.51000000     60.90000000     55.30000000
 N4     41.09000000     61.38000000     53.98000000
 C5     42.07000000     62.29000000     53.33000000
 C6     42.74000000     63.45000000     54.11000000
OS7     41.87000000     64.37000000     54.75000000
 P8     41.94000000     64.35000000     56.33000000
OM9     42.72000000     63.16000000     56.70000000
OM10     42.30000000     65.67000000     56.85000000
OS11     40.40000000     64.03000000     56.46000000
C12     39.66000000     65.25000000     56.42000000
C13     38.20000000     65.18000000     55.94000000
OS14     37.99000000     65.34000000     54.51000000
C15     37.01000000     64.58000000     53.95000000
O16     36.95000000     63.36000000     54.14000000
C17     36.46000000     65.24000000     52.70000000
C18     35.25000000     66.12000000     53.02000000
C19     34.41000000     66.40000000     51.77000000
C20     33.46000000     67.58000000     51.97000000
C21     32.27000000     67.30000000     52.89000000
C22     31.11000000     66.63000000     52.16000000
C23     29.90000000     66.49000000     53.08000000
C24     28.70000000     65.89000000     52.41000000
C25     27.49000000     66.47000000     52.29000000
C26     26.27000000     65.88000000     51.64000000
C27     25.89000000     66.58000000     50.34000000
C28     25.50000000     68.03000000     50.60000000
C29     25.23000000     68.79000000     49.30000000
C30     23.89000000     68.42000000     48.69000000
C31     23.64000000     69.24000000     47.42000000
C32     22.25000000     68.99000000     46.85000000
C33     21.18000000     69.55000000     47.79000000
C34     37.56000000     66.40000000     56.63000000
OS35     37.09000000     66.19000000     57.97000000
C36     37.10000000     67.31000000     58.73000000
O37     37.99000000     68.16000000     58.65000000
C38     36.12000000     67.17000000     59.88000000
C39     35.59000000     68.54000000     60.32000000
C40     34.79000000     69.21000000     59.20000000
C41     33.55000000     68.41000000     58.80000000
C42     32.81000000     69.12000000     57.66000000
C43     31.59000000     68.33000000     57.20000000
C44     30.84000000     69.14000000     56.15000000
C45     30.27000000     70.39000000     56.81000000
C46     29.66000000     71.36000000     55.79000000
C47     29.10000000     72.57000000     56.52000000
C48     30.22000000     73.35000000     57.21000000
C49     29.65000000     74.43000000     58.13000000
C50     28.90000000     73.79000000     59.30000000
C51     28.36000000     74.85000000     60.26000000
C52     29.51000000     75.55000000     60.99000000
 C1     43.44000000     62.69000000     47.51000000
 C2     43.12000000     63.00000000     45.11000000
 C3     41.32000000     62.50000000     46.49000000
 N4     42.58000000     63.23000000     46.45000000
 C5     42.31000000     64.68000000     46.65000000
 C6     43.52000000     65.62000000     46.84000000
OS7     44.50000000     65.45000000     45.81000000
 P8     45.56000000     66.61000000     45.83000000
OM9     46.14000000     66.49000000     47.17000000
OM10     46.39000000     66.24000000     44.69000000
OS11     44.67000000     67.85000000     45.49000000
C12     44.41000000     68.02000000     44.10000000
C13     43.12000000     67.36000000     43.56000000
OS14     43.17000000     67.13000000     42.13000000
C15     42.92000000     65.86000000     41.74000000
O16     42.68000000     64.93000000     42.53000000
C17     43.20000000     65.67000000     40.26000000
C18     42.15000000     66.28000000     39.34000000
C19     42.41000000     67.72000000     38.89000000
C20     41.31000000     68.06000000     37.88000000
C21     41.12000000     66.81000000     37.03000000
C22     40.12000000     66.92000000     35.88000000
C23     40.08000000     65.55000000     35.18000000
C24     39.31000000     65.56000000     33.91000000
C25     39.81000000     65.32000000     32.69000000
C26     39.04000000     65.35000000     31.41000000
C27     39.72000000     66.21000000     30.35000000
C28     39.84000000     67.67000000     30.79000000
C29     40.43000000     68.52000000     29.67000000
C30     39.44000000     68.59000000     28.50000000
C31     39.97000000     69.47000000     27.37000000
C32     38.96000000     69.53000000     26.22000000
C33     37.67000000     70.22000000     26.67000000
C34     41.93000000     68.18000000     44.06000000
OS35     41.43000000     67.80000000     45.36000000
C36     41.06000000     68.87000000     46.13000000
O37     40.53000000     68.76000000     47.24000000
C38     41.32000000     70.17000000     45.39000000
C39     41.46000000     71.39000000     46.30000000
C40     42.16000000     72.57000000     45.61000000
C41     41.31000000     73.25000000     44.53000000
C42     41.60000000     72.74000000     43.11000000
C43     40.60000000     73.32000000     42.11000000
C44     40.74000000     72.67000000     40.74000000
C45     39.70000000     73.24000000     39.79000000
C46     40.05000000     74.68000000     39.41000000
C47     38.84000000     75.38000000     38.76000000
C48     37.80000000     75.70000000     39.83000000
C49     36.53000000     76.29000000     39.22000000
C50     35.76000000     75.24000000     38.42000000
C51     34.46000000     75.83000000     37.86000000
C52     33.49000000     76.18000000     39.00000000
 C1     59.09000000     34.91000000     53.72000000
 C2     59.22000000     33.42000000     51.94000000
 C3     58.38000000     35.55000000     51.51000000
 N4     59.40000000     34.83000000     52.28000000
 C5     60.80000000     35.23000000     52.00000000
 C6     61.17000000     36.73000000     52.12000000
OS7     60.72000000     37.30000000     53.35000000
 P8     61.86000000     37.60000000     54.41000000
OM9     62.36000000     38.80000000     53.74000000
OM10     61.01000000     37.59000000     55.60000000
OS11     62.74000000     36.29000000     54.28000000
C12     62.72000000     35.37000000     55.37000000
C13     62.55000000     33.88000000     54.96000000
OS14     61.40000000     33.27000000     55.60000000
C15     60.93000000     32.15000000     54.98000000
O16     61.12000000     31.99000000     53.78000000
C17     59.71000000     31.60000000     55.72000000
C18     58.93000000     30.65000000     54.81000000
C19     59.55000000     29.26000000     54.83000000
C20     59.17000000     28.42000000     53.60000000
C21     57.67000000     28.17000000     53.47000000
C22     57.41000000     27.11000000     52.40000000
C23     55.92000000     26.81000000     52.26000000
C24     55.66000000     25.70000000     51.28000000
C25     56.62000000     25.01000000     50.65000000
C26     56.41000000     23.88000000     49.69000000
C27     56.27000000     22.55000000     50.44000000
C28     57.52000000     22.26000000     51.27000000
C29     57.36000000     20.96000000     52.07000000
C30     57.38000000     19.75000000     51.13000000
C31     57.22000000     18.45000000     51.92000000
C32     57.30000000     17.24000000     50.99000000
C33     58.71000000     17.12000000     50.39000000
C34     63.89000000     33.12000000     55.12000000
OS35     64.93000000     33.37000000     54.16000000
C36     65.79000000     32.31000000     54.06000000
O37     65.58000000     31.22000000     54.59000000
C38     66.98000000     32.62000000     53.16000000
C39     67.74000000     31.36000000     52.76000000
C40     67.08000000     30.66000000     51.57000000
C41     67.77000000     29.31000000     51.34000000
C42     67.20000000     28.58000000     50.12000000
C43     67.69000000     27.14000000     50.13000000
C44     67.03000000     26.42000000     51.31000000
C45     67.66000000     25.06000000     51.59000000
C46     67.00000000     24.43000000     52.82000000
C47     67.84000000     23.25000000     53.31000000
C48     69.20000000     23.76000000     53.78000000
C49     70.13000000     22.63000000     54.21000000
C50     71.50000000     23.18000000     54.59000000
C51     72.46000000     22.06000000     54.98000000
C52     73.84000000     22.62000000     55.32000000
 C1     44.00000000     56.47000000     60.93000000
 C2     45.48000000     54.62000000     60.99000000
 C3     46.41000000     56.75000000     60.54000000
 N4     45.36000000     56.05000000     61.29000000
 C5     45.50000000     56.19000000     62.75000000
 C6     45.89000000     57.56000000     63.34000000
OS7     45.18000000     58.67000000     62.78000000
 P8     45.95000000     60.01000000     63.10000000
OM9     47.29000000     59.66000000     62.59000000
OM10     45.13000000     61.00000000     62.43000000
OS11     45.77000000     60.02000000     64.65000000
C12     44.42000000     60.36000000     65.00000000
C13     44.03000000     60.09000000     66.46000000
OS14     43.11000000     58.98000000     66.69000000
C15     43.70000000     57.76000000     66.92000000
O16     44.64000000     57.34000000     66.25000000
C17     42.81000000     56.88000000     67.79000000
C18     43.67000000     55.80000000     68.45000000
C19     43.14000000     55.34000000     69.81000000
C20     41.91000000     54.45000000     69.68000000
C21     41.48000000     53.89000000     71.04000000
C22     42.57000000     52.96000000     71.59000000
C23     42.15000000     52.24000000     72.87000000
C24     43.28000000     51.41000000     73.40000000
C25     43.21000000     50.19000000     73.96000000
C26     44.37000000     49.40000000     74.47000000
C27     44.32000000     49.16000000     75.98000000
C28     44.46000000     50.46000000     76.78000000
C29     44.43000000     50.18000000     78.29000000
C30     44.53000000     51.48000000     79.08000000
C31     44.52000000     51.20000000     80.59000000
C32     44.58000000     52.51000000     81.38000000
C33     43.29000000     53.31000000     81.21000000
C34     43.52000000     61.43000000     67.01000000
OS35     44.56000000     62.40000000     67.24000000
C36     44.47000000     63.58000000     66.55000000
O37     43.78000000     63.69000000     65.54000000
C38     45.54000000     64.58000000     66.97000000
C39     45.63000000     64.80000000     68.48000000
C40     46.57000000     63.78000000     69.13000000
C41     46.54000000     63.85000000     70.65000000
C42     47.28000000     62.64000000     71.23000000
C43     47.27000000     62.70000000     72.76000000
C44     45.83000000     62.65000000     73.27000000
C45     45.79000000     62.86000000     74.78000000
C46     44.35000000     63.09000000     75.24000000
C47     44.33000000     63.48000000     76.71000000
C48     42.93000000     63.92000000     77.14000000
C49     42.94000000     64.39000000     78.59000000
C50     43.81000000     65.64000000     78.75000000
C51     43.84000000     66.10000000     80.20000000
C52     42.45000000     66.59000000     80.64000000
 C1     38.34000000     50.32000000     40.46000000
 C2     38.73000000     49.44000000     38.28000000
 C3     38.99000000     48.03000000     40.11000000
 N4     38.19000000     49.14000000     39.61000000
 C5     36.80000000     48.65000000     39.46000000
 C6     35.67000000     49.69000000     39.33000000
OS7     35.90000000     50.67000000     38.34000000
 P8     35.33000000     52.08000000     38.70000000
OM9     35.59000000     52.24000000     40.16000000
OM10     35.87000000     53.02000000     37.74000000
OS11     33.80000000     51.90000000     38.45000000
C12     33.50000000     51.95000000     37.05000000
C13     32.55000000     50.85000000     36.56000000
OS14     33.06000000     49.51000000     36.79000000
C15     32.50000000     48.70000000     37.73000000
O16     32.15000000     49.07000000     38.86000000
C17     33.05000000     47.32000000     37.48000000
C18     31.99000000     46.34000000     36.98000000
C19     31.89000000     46.24000000     35.46000000
C20     31.05000000     45.00000000     35.20000000
C21     30.83000000     44.66000000     33.73000000
C22     30.07000000     43.33000000     33.72000000
C23     29.66000000     42.81000000     32.35000000
C24     28.99000000     41.48000000     32.56000000
C25     28.88000000     40.43000000     31.74000000
C26     28.20000000     39.13000000     32.09000000
C27     26.76000000     39.01000000     31.58000000
C28     25.81000000     40.01000000     32.25000000
C29     24.37000000     39.82000000     31.78000000
C30     23.76000000     38.56000000     32.37000000
C31     22.31000000     38.39000000     31.89000000
C32     21.67000000     37.15000000     32.52000000
C33     20.24000000     36.97000000     32.00000000
C34     32.38000000     51.06000000     35.04000000
OS35     31.73000000     52.27000000     34.61000000
C36     31.53000000     52.27000000     33.26000000
O37     31.99000000     51.39000000     32.53000000
C38     30.80000000     53.50000000     32.75000000
C39     29.50000000     53.78000000     33.51000000
C40     28.44000000     52.70000000     33.29000000
C41     27.15000000     53.13000000     34.00000000
C42     26.28000000     51.95000000     34.44000000
C43     25.42000000     51.36000000     33.32000000