#B3LYP/6-31+G(d) OPT FREQ

6100, Energy = 2626409.58392125 au

0 1
 C1     42.08000000     55.29000000     44.49000000
 C2     40.66000000     54.65000000     44.70000000
 C3     42.28000000     55.26000000     45.52000000
 N4     41.29000000     55.23000000     44.90000000
 C5     40.14000000     55.89000000     44.90000000
 C6     40.50000000     56.68000000     44.65000000
OS7     40.78000000     56.85000000     42.98000000
 P8     41.12000000     58.62000000     42.26000000
OM9     42.02000000     59.16000000     43.35000000
OM10     41.21000000     58.45000000     41.31000000
OS11     39.40000000     59.31000000     42.36000000
C12     38.66000000     58.81000000     41.59000000
C13     37.18000000     58.99000000     41.84000000
OS14     36.41000000     58.31000000     40.78000000
C15     35.64000000     57.26000000     40.82000000
O16     35.46000000     57.04000000     41.90000000
C17     35.33000000     56.50000000     39.72000000
C18     35.78000000     55.04000000     39.41000000
C19     34.84000000     54.82000000     38.93000000
C20     33.18000000     54.45000000     38.44000000
C21     32.13000000     53.58000000     38.16000000
C22     30.99000000     53.15000000     37.74000000
C23     30.27000000     53.38000000     36.40000000
C24     28.67000000     53.21000000     36.24000000
C25     28.17000000     53.15000000     35.16000000
C26     27.05000000     53.33000000     35.37000000
C27     27.01000000     53.46000000     33.86000000
C28     27.45000000     55.45000000     32.01000000
C29     25.13000000     55.96000000     30.81000000
C30     23.49000000     56.86000000     33.11000000
C31     21.75000000     57.74000000     32.59000000
C32     21.62000000     57.89000000     32.39000000
C33     21.24000000     58.40000000     33.01000000
C34     36.92000000     60.45000000     42.14000000
OS35     35.85000000     61.07000000     42.58000000
C36     35.39000000     62.11000000     43.17000000
O37     36.20000000     62.90000000     43.29000000
C38     33.96000000     62.30000000     43.67000000
C39     32.94000000     62.92000000     43.41000000
C40     32.04000000     62.36000000     42.49000000
C41     31.18000000     63.20000000     41.68000000
C42     30.02000000     62.81000000     41.17000000
C43     29.05000000     63.50000000     40.31000000
C44     29.67000000     63.70000000     38.88000000
C45     28.76000000     64.53000000     38.07000000
C46     28.91000000     64.54000000     36.54000000
C47     27.89000000     65.24000000     35.63000000
C48     27.86000000     66.67000000     36.18000000
C49     26.88000000     67.66000000     35.55000000
C50     25.79000000     68.23000000     36.47000000
C51     24.51000000     68.64000000     35.74000000
C52     24.44000000     70.15000000     35.49000000
 C1     43.15000000     50.54000000     41.95000000
 C2     41.64000000     49.98000000     42.53000000
 C3     41.71000000     52.15000000     43.11000000
 N4     41.96000000     50.80000000     42.64000000
 C5     40.91000000     50.99000000     42.16000000
 C6     41.36000000     51.49000000     41.12000000
OS7     41.95000000     51.22000000     39.92000000
 P8     41.89000000     52.49000000     38.56000000
OM9     42.52000000     53.72000000     39.22000000
OM10     42.24000000     52.23000000     37.79000000
OS11     40.08000000     52.56000000     37.94000000
C12     39.74000000     51.56000000     37.49000000
C13     38.30000000     51.29000000     37.45000000
OS14     38.09000000     50.03000000     36.76000000
C15     37.83000000     48.98000000     37.40000000
O16     37.68000000     49.26000000     38.54000000
C17     37.66000000     47.83000000     36.45000000
C18     38.28000000     46.56000000     36.28000000
C19     37.80000000     45.39000000     36.02000000
C20     36.48000000     44.70000000     36.29000000
C21     36.06000000     43.80000000     35.57000000
C22     34.78000000     43.42000000     35.24000000
C23     34.62000000     42.72000000     34.19000000
C24     33.34000000     42.29000000     33.57000000
C25     32.94000000     41.44000000     32.56000000
C26     32.51000000     40.80000000     31.91000000
C27     32.14000000     39.64000000     31.14000000
C28     32.04000000     40.61000000     29.30000000
C29     30.55000000     40.26000000     28.02000000
C30     28.91000000     39.31000000     28.38000000
C31     28.21000000     39.17000000     27.92000000
C32     27.25000000     40.14000000     26.98000000
C33     26.06000000     41.73000000     27.28000000
C34     37.57000000     52.60000000     36.99000000
OS35     36.21000000     52.84000000     36.99000000
C36     35.55000000     53.71000000     36.61000000
O37     35.97000000     54.83000000     36.68000000
C38     34.37000000     53.45000000     36.35000000
C39     33.26000000     53.67000000     35.69000000
C40     32.68000000     52.30000000     35.59000000
C41     31.79000000     52.56000000     34.34000000
C42     31.06000000     51.29000000     34.02000000
C43     30.09000000     51.45000000     32.86000000
C44     30.95000000     51.38000000     31.60000000
C45     30.06000000     51.45000000     30.35000000
C46     30.72000000     51.00000000     29.05000000
C47     29.87000000     51.00000000     27.77000000
C48     29.32000000     52.29000000     27.57000000
C49     28.35000000     52.52000000     26.42000000
C50     26.94000000     52.97000000     26.80000000
C51     25.85000000     52.59000000     25.79000000
C52     25.49000000     53.74000000     24.86000000
 C1     43.20000000     46.59000000     56.97000000
 C2     44.69000000     47.46000000     57.04000000
 C3     44.09000000     47.29000000     56.58000000
 N4     43.86000000     47.15000000     56.83000000
 C5     43.27000000     46.90000000     58.26000000
 C6     41.51000000     46.75000000     58.47000000
OS7     41.28000000     45.97000000     58.18000000
 P8     39.60000000     45.61000000     58.28000000
OM9     39.10000000     46.06000000     58.14000000
OM10     38.95000000     43.82000000     58.04000000
OS11     40.03000000     45.90000000     60.41000000
C12     40.15000000     44.62000000     61.75000000
C13     40.81000000     44.89000000     62.61000000
OS14     41.59000000     43.89000000     63.24000000
C15     42.94000000     44.00000000     63.24000000
O16     43.53000000     44.86000000     62.61000000
C17     43.57000000     42.93000000     64.11000000
C18     44.83000000     42.97000000     63.73000000
C19     45.05000000     41.86000000     64.40000000
C20     45.87000000     42.19000000     65.52000000
C21     46.46000000     41.89000000     66.64000000
C22     47.40000000     41.23000000     67.73000000
C23     48.07000000     39.66000000     68.37000000
C24     47.74000000     39.82000000     69.83000000
C25     47.93000000     38.79000000     70.70000000
C26     47.86000000     38.96000000     72.15000000
C27     48.14000000     37.76000000     72.99000000
C28     47.32000000     37.23000000     73.66000000
C29     47.20000000     36.52000000     74.91000000
C30     47.12000000     37.57000000     75.84000000
C31     47.40000000     36.80000000     77.11000000
C32     47.24000000     37.38000000     78.43000000
C33     45.98000000     38.11000000     78.82000000
C34     39.59000000     45.48000000     63.26000000
OS35     39.76000000     46.22000000     64.36000000
C36     38.67000000     47.00000000     64.87000000
O37     37.71000000     47.12000000     64.44000000
C38     38.49000000     48.00000000     66.10000000
C39     38.98000000     48.31000000     67.59000000
C40     39.78000000     47.45000000     69.02000000
C41     39.59000000     46.22000000     69.85000000
C42     40.08000000     45.49000000     70.51000000
C43     39.45000000     45.18000000     71.83000000
C44     38.78000000     43.82000000     71.63000000
C45     38.21000000     43.31000000     72.97000000
C46     37.89000000     41.81000000     73.03000000
C47     37.50000000     41.21000000     74.38000000
C48     36.23000000     41.98000000     74.76000000
C49     35.58000000     41.69000000     76.11000000
C50     35.55000000     42.83000000     77.13000000
C51     35.53000000     42.36000000     78.60000000
C52     34.12000000     42.40000000     79.19000000
 C1     61.84000000     44.77000000     50.22000000
 C2     61.51000000     44.80000000     50.08000000
 C3     60.10000000     44.05000000     49.82000000
 N4     61.10000000     44.42000000     50.11000000
 C5     61.96000000     43.47000000     50.22000000
 C6     62.76000000     42.85000000     49.59000000
OS7     63.68000000     42.81000000     48.76000000
 P8     64.13000000     41.64000000     47.61000000
OM9     63.05000000     41.16000000     46.76000000
OM10     64.78000000     42.04000000     46.68000000
OS11     64.41000000     40.59000000     48.74000000
C12     65.72000000     40.63000000     49.21000000
C13     66.18000000     39.91000000     50.36000000
OS14     67.40000000     40.42000000     50.91000000
C15     67.35000000     41.31000000     51.92000000
O16     66.29000000     41.70000000     52.35000000
C17     68.68000000     41.56000000     52.41000000
C18     68.73000000     42.28000000     52.23000000
C19     70.41000000     42.39000000     53.44000000
C20     70.76000000     42.35000000     54.87000000
C21     71.90000000     42.36000000     55.47000000
C22     72.36000000     42.28000000     56.42000000
C23     73.80000000     42.55000000     56.44000000
C24     74.50000000     41.72000000     57.42000000
C25     75.78000000     41.73000000     57.81000000
C26     76.39000000     40.79000000     58.80000000
C27     77.88000000     40.92000000     59.01000000
C28     78.37000000     39.96000000     58.38000000
C29     79.64000000     39.44000000     59.03000000
C30     79.56000000     38.50000000     59.78000000
C31     80.91000000     38.21000000     60.39000000
C32     81.00000000     37.04000000     61.38000000
C33     80.69000000     35.68000000     60.76000000
C34     66.02000000     38.42000000     50.06000000
OS35     66.07000000     37.50000000     51.17000000
C36     65.68000000     36.21000000     50.97000000
O37     65.28000000     35.75000000     49.90000000
C38     65.51000000     35.62000000     52.37000000
C39     66.43000000     34.42000000     52.60000000
C40     67.71000000     34.87000000     53.32000000
C41     68.75000000     33.75000000     53.38000000
C42     69.87000000     34.10000000     54.36000000
C43     70.90000000     32.99000000     54.56000000
C44     71.93000000     33.22000000     53.45000000
C45     73.07000000     32.20000000     53.57000000
C46     74.36000000     32.54000000     52.83000000
C47     75.60000000     31.65000000     53.05000000
C48     75.13000000     30.27000000     52.59000000
C49     76.10000000     29.09000000     52.74000000
C50     75.69000000     27.98000000     53.71000000
C51     76.87000000     27.21000000     54.32000000
C52     77.14000000     25.89000000     53.61000000
 C1     55.53000000     58.18000000     46.58000000
 C2     53.26000000     58.40000000     46.77000000
 C3     53.72000000     58.17000000     48.87000000
 N4     54.16000000     58.49000000     47.95000000
 C5     54.22000000     59.01000000     47.61000000
 C6     55.31000000     59.70000000     48.11000000
OS7     56.61000000     60.03000000     47.43000000
 P8     57.69000000     60.91000000     48.00000000
OM9     57.93000000     60.80000000     49.11000000
OM10     58.72000000     61.13000000     47.82000000
OS11     56.99000000     62.24000000     47.60000000
C12     57.08000000     62.69000000     46.71000000
C13     55.85000000     63.73000000     46.37000000
OS14     55.47000000     64.26000000     45.17000000
C15     54.95000000     62.87000000     44.27000000
O16     54.54000000     62.49000000     44.56000000
C17     56.16000000     62.81000000     41.69000000
C18     55.99000000     62.22000000     40.68000000
C19     55.63000000     62.47000000     39.81000000
C20     54.77000000     63.66000000     39.42000000
C21     55.02000000     64.10000000     38.15000000
C22     54.18000000     65.15000000     37.42000000
C23     54.61000000     65.80000000     36.33000000
C24     54.24000000     66.78000000     35.48000000
C25     54.29000000     67.29000000     34.24000000
C26     53.93000000     68.61000000     33.79000000
C27     54.47000000     69.13000000     32.48000000
C28     55.09000000     69.76000000     32.31000000
C29     54.80000000     70.82000000     31.29000000
C30     54.34000000     72.12000000     31.93000000
C31     54.39000000     73.11000000     30.73000000
C32     53.64000000     74.32000000     30.72000000
C33     53.91000000     75.29000000     31.86000000
C34     56.16000000     65.01000000     46.94000000
OS35     55.18000000     65.98000000     46.71000000
C36     55.41000000     67.19000000     47.14000000
O37     56.04000000     66.89000000     48.01000000
C38     53.77000000     68.11000000     46.92000000
C39     53.83000000     69.17000000     47.11000000
C40     53.87000000     69.36000000     45.62000000
C41     54.23000000     70.81000000     45.32000000
C42     54.13000000     71.14000000     43.92000000
C43     54.28000000     72.60000000     43.50000000
C44     55.69000000     72.66000000     43.09000000
C45     56.05000000     74.07000000     42.62000000
C46     57.36000000     74.21000000     41.85000000
C47     57.70000000     75.56000000     41.20000000
C48     57.73000000     76.52000000     42.39000000
C49     57.97000000     78.00000000     42.10000000
C50     56.83000000     78.97000000     42.44000000
C51     56.81000000     80.25000000     41.60000000
C52     57.43000000     81.44000000     42.32000000
 C1     64.58000000     51.66000000     47.67000000
 C2     64.27000000     50.83000000     46.23000000
 C3     64.05000000     52.24000000     46.95000000
 N4     64.41000000     51.50000000     47.06000000
 C5     65.10000000     51.78000000     46.39000000
 C6     66.22000000     52.81000000     46.90000000
OS7     66.89000000     52.26000000     47.64000000
 P8     67.30000000     52.91000000     47.70000000
OM9     66.78000000     54.73000000     47.77000000
OM10     69.04000000     52.01000000     48.82000000
OS11     68.57000000     53.30000000     45.97000000
C12     70.21000000     52.94000000     45.81000000
C13     70.29000000     52.39000000     44.84000000
OS14     71.10000000     51.25000000     44.73000000
C15     70.51000000     50.16000000     44.39000000
O16     69.46000000     50.39000000     44.23000000
C17     71.43000000     49.18000000     44.24000000
C18     71.08000000     48.46000000     44.40000000
C19     72.04000000     46.49000000     43.51000000
C20     71.98000000     45.92000000     43.00000000
C21     73.08000000     45.13000000     42.78000000
C22     73.64000000     44.95000000     41.38000000
C23     74.81000000     44.00000000     41.55000000
C24     75.59000000     43.90000000     40.27000000
C25     76.65000000     43.13000000     40.00000000
C26     77.38000000     43.08000000     38.69000000
C27     78.66000000     42.24000000     38.68000000
C28     79.88000000     42.94000000     39.17000000
C29     80.98000000     42.37000000     38.37000000
C30     80.76000000     42.69000000     36.78000000
C31     82.09000000     42.09000000     36.11000000
C32     82.48000000     42.55000000     34.72000000
C33     82.88000000     44.01000000     34.51000000
C34     70.65000000     53.48000000     44.30000000
OS35     70.96000000     53.86000000     42.85000000
C36     71.00000000     54.99000000     41.86000000
O37     71.26000000     56.27000000     41.85000000
C38     70.99000000     54.93000000     40.78000000
C39     72.26000000     55.33000000     40.06000000
C40     73.08000000     54.08000000     39.76000000
C41     74.46000000     54.42000000     39.17000000
C42     75.12000000     53.17000000     38.57000000
C43     76.44000000     53.44000000     37.87000000
C44     77.50000000     53.36000000     38.97000000
C45     78.90000000     53.56000000     38.37000000
C46     80.07000000     53.10000000     39.26000000
C47     81.49000000     53.10000000     38.66000000
C48     81.71000000     54.56000000     38.29000000
C49     83.02000000     54.94000000     37.58000000
C50     82.90000000     55.48000000     36.15000000
C51     84.14000000     55.22000000     35.28000000
C52     85.06000000     56.43000000     35.20000000
 C1     38.96000000     43.82000000     48.41000000
 C2     38.01000000     45.37000000     48.96000000
 C3     38.48000000     45.64000000     48.42000000
 N4     38.40000000     45.07000000     48.50000000
 C5     37.17000000     44.43000000     48.22000000
 C6     36.89000000     43.72000000     46.97000000
OS7     36.89000000     42.49000000     47.11000000
 P8     36.36000000     41.67000000     45.73000000
OM9     36.46000000     42.34000000     45.06000000
OM10     36.38000000     40.20000000     45.64000000
OS11     35.03000000     41.75000000     46.00000000
C12     34.49000000     40.66000000     46.74000000
C13     33.11000000     40.79000000     47.27000000
OS14     32.89000000     40.06000000     48.31000000
C15     33.23000000     40.66000000     49.50000000
O16     33.32000000     41.65000000     49.87000000
C17     33.54000000     40.39000000     49.96000000
C18     33.23000000     40.25000000     52.19000000
C19     32.71000000     38.56000000     53.27000000
C20     31.84000000     38.68000000     53.78000000
C21     31.22000000     37.68000000     54.48000000
C22     29.91000000     37.57000000     55.17000000
C23     29.48000000     36.44000000     55.69000000
C24     28.06000000     36.37000000     56.06000000
C25     27.43000000     35.38000000     56.71000000
C26     26.00000000     35.37000000     57.16000000
C27     25.46000000     34.05000000     57.75000000
C28     25.47000000     32.64000000     57.33000000
C29     23.94000000     31.95000000     57.54000000
C30     22.61000000     32.99000000     57.45000000
C31     21.62000000     32.09000000     57.89000000
C32     20.17000000     32.53000000     57.93000000
C33     19.48000000     32.86000000     56.82000000
C34     32.22000000     40.63000000     46.14000000
OS35     30.76000000     40.79000000     46.17000000
C36     29.79000000     41.08000000     45.16000000
O37     30.61000000     41.15000000     44.50000000
C38     28.57000000     41.74000000     45.18000000
C39     27.43000000     41.53000000     45.40000000
C40     27.06000000     40.57000000     46.51000000
C41     25.81000000     40.17000000     46.33000000
C42     25.21000000     39.67000000     47.64000000
C43     23.91000000     38.92000000     47.40000000
C44     24.36000000     37.50000000     47.05000000
C45     23.13000000     36.59000000     46.85000000
C46     23.40000000     35.09000000     46.91000000
C47     22.20000000     34.13000000     46.89000000
C48     21.52000000     34.44000000     45.56000000
C49     20.22000000     33.71000000     45.22000000
C50     18.95000000     34.57000000     45.10000000
C51     17.65000000     33.82000000     45.42000000
C52     16.93000000     33.35000000     44.16000000
 C1     57.12000000     42.82000000     51.26000000
 C2     55.84000000     42.63000000     51.04000000
 C3     56.51000000     43.36000000     50.58000000
 N4     56.90000000     42.85000000     51.04000000
 C5     57.38000000     41.43000000     51.04000000
 C6     59.00000000     41.31000000     50.94000000
OS7     59.64000000     41.16000000     51.82000000
 P8     61.15000000     40.74000000     51.78000000
OM9     61.56000000     41.30000000     51.06000000
OM10     61.62000000     39.91000000     52.44000000
OS11     60.69000000     39.12000000     51.38000000
C12     60.99000000     37.76000000     52.02000000
C13     60.10000000     36.84000000     51.84000000
OS14     59.63000000     36.12000000     52.98000000
C15     58.31000000     36.18000000     53.27000000
O16     57.51000000     36.82000000     52.59000000
C17     57.98000000     35.23000000     54.39000000
C18     56.79000000     35.48000000     54.66000000
C19     56.23000000     34.54000000     56.12000000
C20     55.72000000     33.70000000     55.91000000
C21     55.49000000     32.82000000     57.09000000
C22     55.03000000     31.41000000     56.74000000
C23     55.06000000     30.62000000     58.04000000
C24     54.83000000     29.16000000     57.76000000
C25     54.75000000     28.15000000     58.60000000
C26     54.50000000     26.73000000     58.28000000
C27     54.52000000     25.58000000     59.19000000
C28     56.08000000     25.09000000     59.35000000
C29     56.10000000     23.67000000     60.01000000
C30     55.44000000     22.88000000     59.07000000
C31     55.33000000     21.52000000     59.74000000
C32     55.10000000     20.29000000     58.87000000
C33     56.25000000     19.98000000     57.91000000
C34     61.09000000     36.23000000     50.85000000
OS35     60.62000000     35.13000000     50.14000000
C36     61.49000000     34.61000000     49.46000000
O37     62.43000000     35.36000000     48.85000000
C38     60.39000000     33.16000000     48.91000000
C39     60.77000000     32.04000000     48.25000000
C40     60.45000000     31.40000000     49.25000000
C41     61.18000000     30.09000000     49.28000000
C42     60.39000000     29.10000000     50.14000000
C43     60.97000000     27.69000000     50.17000000
C44     61.99000000     27.72000000     51.31000000
C45     62.62000000     26.33000000     51.50000000
C46     63.32000000     26.09000000     52.85000000
C47     63.81000000     24.67000000     53.17000000
C48     64.81000000     24.38000000     52.04000000
C49     65.46000000     23.00000000     52.00000000
C50     65.13000000     22.11000000     50.79000000
C51     65.23000000     20.60000000     51.07000000
C52     66.55000000     20.00000000     50.59000000
 C1     35.37000000     53.76000000     49.46000000
 C2     35.32000000     52.79000000     49.17000000
 C3     35.62000000     53.53000000     50.52000000
 N4     35.30000000     52.61000000     49.69000000
 C5     34.35000000     52.82000000     50.15000000
 C6     33.59000000     53.05000000     50.47000000
OS7     33.58000000     55.69000000     50.23000000
 P8     32.37000000     56.31000000     50.19000000
OM9     33.51000000     56.22000000     52.78000000
OM10     32.14000000     57.44000000     49.56000000
OS11     30.91000000     55.67000000     50.57000000
C12     30.35000000     55.68000000     49.73000000
C13     29.21000000     54.75000000     49.63000000
OS14     28.67000000     54.61000000     48.45000000
C15     28.93000000     53.80000000     47.56000000
O16     29.50000000     52.84000000     48.05000000
C17     28.21000000     54.11000000     46.21000000
C18     28.68000000     54.04000000     44.90000000
C19     28.20000000     53.54000000     44.12000000
C20     27.13000000     52.56000000     43.76000000
C21     26.05000000     52.80000000     42.80000000
C22     24.98000000     52.00000000     42.40000000
C23     24.39000000     52.51000000     41.07000000
C24     23.05000000     51.88000000     40.95000000
C25     22.18000000     52.07000000     39.98000000
C26     20.98000000     51.54000000     39.82000000
C27     19.90000000     51.99000000     38.78000000
C28     19.11000000     53.24000000     39.17000000
C29     17.73000000     53.23000000     38.52000000
C30     16.73000000     52.38000000     38.86000000
C31     15.58000000     52.04000000     38.29000000
C32     14.38000000     51.24000000     38.72000000
C33     13.51000000     52.00000000     39.82000000
C34     28.51000000     54.70000000     50.47000000
OS35     27.27000000     53.80000000     51.14000000
C36     26.42000000     53.40000000     52.43000000
O37     26.25000000     53.91000000     53.49000000
C38     25.85000000     52.65000000     52.54000000
C39     24.38000000     52.95000000     52.72000000
C40     23.68000000     52.84000000     51.37000000
C41     22.21000000     53.27000000     51.45000000
C42     21.45000000     52.85000000     50.18000000
C43     19.96000000     53.15000000     50.22000000
C44     19.83000000     54.58000000     49.71000000
C45     18.35000000     55.00000000     49.64000000
C46     18.03000000     56.22000000     48.77000000
C47     16.56000000     56.57000000     48.52000000
C48     16.01000000     56.82000000     49.92000000
C49     14.52000000     57.14000000     50.06000000
C50     13.66000000     56.12000000     50.83000000
C51     12.19000000     56.10000000     50.41000000
C52     11.30000000     56.90000000     51.36000000
 C1     64.55000000     47.13000000     49.06000000
 C2     63.94000000     46.26000000     49.88000000
 C3     63.54000000     46.06000000     48.68000000
 N4     63.81000000     46.75000000     49.32000000
 C5     64.85000000     45.88000000     49.21000000
 C6     65.81000000     45.59000000     48.30000000
OS7     66.71000000     46.57000000     47.78000000
 P8     67.62000000     46.47000000     46.63000000
OM9     67.20000000     46.78000000     45.52000000
OM10     68.26000000     47.37000000     45.91000000
OS11     68.46000000     45.01000000     47.16000000
C12     69.70000000     44.97000000     47.59000000
C13     70.31000000     44.49000000     48.36000000
OS14     71.03000000     44.64000000     49.50000000
C15     70.40000000     45.09000000     50.17000000
O16     69.24000000     44.77000000     50.49000000
C17     71.51000000     46.24000000     50.27000000
C18     71.50000000     47.30000000     51.96000000
C19     72.09000000     47.21000000     53.65000000
C20     72.66000000     46.83000000     55.62000000
C21     73.67000000     46.32000000     56.21000000
C22     74.54000000     45.17000000     56.50000000
C23     75.58000000     45.48000000     57.06000000
C24     76.72000000     44.61000000     57.46000000
C25     77.85000000     44.68000000     58.13000000
C26     78.76000000     43.78000000     58.66000000
C27     80.08000000     44.20000000     59.22000000
C28     80.85000000     44.18000000     58.46000000
C29     81.88000000     43.61000000     59.12000000
C30     82.30000000     42.14000000     59.28000000
C31     83.46000000     41.43000000     60.18000000
C32     84.15000000     40.56000000     60.45000000
C33     84.34000000     39.66000000     59.27000000
C34     70.84000000     43.16000000     47.45000000
OS35     70.93000000     41.68000000     47.90000000
C36     70.88000000     40.47000000     47.47000000
O37     70.66000000     40.52000000     46.32000000
C38     70.67000000     39.22000000     48.36000000
C39     71.91000000     38.45000000     48.40000000
C40     72.96000000     38.55000000     48.96000000
C41     74.30000000     38.05000000     49.13000000
C42     75.37000000     37.99000000     49.63000000
C43     76.53000000     37.55000000     49.79000000
C44     77.47000000     38.64000000     49.78000000
C45     78.90000000     38.22000000     49.31000000
C46     80.06000000     38.93000000     49.59000000
C47     81.46000000     38.35000000     49.69000000
C48     81.51000000     37.25000000     48.62000000
C49     82.80000000     36.43000000     48.50000000
C50     82.71000000     34.93000000     48.82000000
C51     84.02000000     34.32000000     49.31000000
C52     84.77000000     33.58000000     48.21000000
 C1     53.70000000     42.64000000     47.24000000
 C2     51.01000000     43.03000000     47.09000000
 C3     53.36000000     43.73000000     46.78000000
 N4     52.61000000     42.70000000     46.78000000
 C5     52.74000000     41.37000000     46.05000000
 C6     54.04000000     41.08000000     45.43000000
OS7     54.64000000     40.05000000     46.11000000
 P8     55.97000000     39.49000000     45.34000000
OM9     56.46000000     40.66000000     44.55000000
OM10     56.70000000     38.69000000     46.10000000
OS11     55.09000000     38.55000000     44.55000000
C12     54.90000000     37.33000000     44.85000000
C13     53.87000000     36.56000000     44.07000000
OS14     53.39000000     35.58000000     44.68000000
C15     52.21000000     35.67000000     44.90000000
O16     51.84000000     36.90000000     45.21000000
C17     51.17000000     33.49000000     45.70000000
C18     50.99000000     34.04000000     48.13000000
C19     50.48000000     33.56000000     48.62000000
C20     49.63000000     32.58000000     47.84000000
C21     49.28000000     31.41000000     48.39000000
C22     48.34000000     30.50000000     47.64000000
C23     48.36000000     29.19000000     48.43000000
C24     47.70000000     28.12000000     47.62000000
C25     47.66000000     26.85000000     47.98000000
C26     47.39000000     25.74000000     47.18000000
C27     47.14000000     24.33000000     48.05000000
C28     47.94000000     23.55000000     47.42000000
C29     47.50000000     22.12000000     47.30000000
C30     46.99000000     21.56000000     46.21000000
C31     46.18000000     20.44000000     46.12000000
C32     45.50000000     19.80000000     44.83000000
C33     46.10000000     19.91000000     43.60000000
C34     54.35000000     36.27000000     42.67000000
OS35     53.43000000     35.77000000     41.79000000
C36     53.87000000     35.23000000     41.19000000
O37     55.02000000     35.69000000     40.57000000
C38     52.13000000     34.35000000     40.40000000
C39     51.91000000     33.75000000     39.48000000
C40     51.89000000     32.98000000     39.58000000
C41     52.17000000     31.71000000     38.85000000
C42     51.29000000     30.64000000     39.36000000
C43     51.41000000     29.30000000     38.63000000