#B3LYP/6-31+G(d) OPT FREQ

6100, Energy = -96562.00621893 au

0 1
 C1     39.71000000     43.63000000     59.98000000
 C2     40.84000000     42.30000000     61.66000000
 C3     38.57000000     42.89000000     61.94000000
 N4     39.58000000     42.53000000     60.94000000
 C5     39.06000000     41.32000000     60.28000000
 C6     39.95000000     40.54000000     59.29000000
OS7     39.30000000     39.36000000     58.83000000
 P8     40.16000000     38.06000000     59.01000000
OM9     39.47000000     37.01000000     58.27000000
OM10     41.53000000     38.46000000     58.64000000
OS11     39.95000000     37.91000000     60.55000000
C12     38.65000000     37.50000000     60.99000000
C13     38.16000000     38.29000000     62.23000000
OS14     38.93000000     38.07000000     63.44000000
C15     39.38000000     39.22000000     64.01000000
O16     39.26000000     40.31000000     63.44000000
C17     40.20000000     39.00000000     65.28000000
C18     41.22000000     40.14000000     65.43000000
C19     42.24000000     39.86000000     66.53000000
C20     41.66000000     40.07000000     67.92000000
C21     42.74000000     39.83000000     68.99000000
C22     43.88000000     40.83000000     68.80000000
C23     44.96000000     40.66000000     69.88000000
C24     44.44000000     41.01000000     71.24000000
C25     45.16000000     41.45000000     72.28000000
C26     44.65000000     41.79000000     73.65000000
C27     44.98000000     40.74000000     74.72000000
C28     44.31000000     39.40000000     74.40000000
C29     44.53000000     38.36000000     75.50000000
C30     43.56000000     38.60000000     76.66000000
C31     43.70000000     37.51000000     77.72000000
C32     42.65000000     37.69000000     78.82000000
C33     41.24000000     37.46000000     78.25000000
C34     36.64000000     38.06000000     62.37000000
OS35     35.97000000     38.86000000     63.37000000
C36     35.88000000     40.22000000     63.21000000
O37     35.85000000     40.78000000     62.11000000
C38     35.48000000     40.89000000     64.51000000
C39     34.85000000     39.90000000     65.50000000
C40     34.75000000     40.54000000     66.88000000
C41     33.80000000     41.74000000     66.88000000
C42     33.68000000     42.46000000     68.23000000
C43     32.79000000     41.75000000     69.25000000
C44     33.55000000     40.81000000     70.18000000
C45     32.59000000     40.07000000     71.11000000
C46     33.34000000     39.06000000     71.98000000
C47     32.38000000     38.30000000     72.89000000
C48     31.43000000     37.42000000     72.06000000
C49     30.46000000     36.66000000     72.97000000
C50     29.50000000     37.62000000     73.67000000
C51     28.52000000     36.85000000     74.56000000
C52     27.58000000     35.99000000     73.72000000
 C1     38.95000000     54.35000000     61.12000000
 C2     40.23000000     53.14000000     59.55000000
 C3     41.32000000     54.13000000     61.41000000
 N4     40.10000000     53.45000000     60.97000000
 C5     39.84000000     52.23000000     61.74000000
 C6     39.61000000     52.38000000     63.26000000
OS7     39.41000000     51.12000000     63.87000000
 P8     39.47000000     51.11000000     65.46000000
OM9     40.23000000     49.88000000     65.66000000
OM10     40.06000000     52.41000000     65.82000000
OS11     37.92000000     51.05000000     65.73000000
C12     37.35000000     52.29000000     66.16000000
C13     36.16000000     52.78000000     65.30000000
OS14     36.34000000     54.14000000     64.83000000
C15     35.94000000     54.40000000     63.55000000
O16     36.39000000     53.74000000     62.60000000
C17     35.62000000     55.88000000     63.48000000
C18     34.71000000     56.19000000     62.30000000
C19     33.79000000     57.36000000     62.61000000
C20     32.85000000     57.68000000     61.45000000
C21     31.84000000     58.74000000     61.88000000
C22     30.88000000     58.13000000     62.91000000
C23     29.92000000     59.19000000     63.44000000
C24     28.97000000     58.58000000     64.44000000
C25     29.09000000     58.63000000     65.77000000
C26     28.14000000     58.02000000     66.75000000
C27     26.96000000     58.95000000     67.03000000
C28     25.99000000     58.32000000     68.03000000
C29     24.80000000     59.25000000     68.28000000
C30     23.84000000     58.64000000     69.30000000
C31     22.64000000     59.56000000     69.54000000
C32     23.06000000     60.84000000     70.26000000
C33     23.48000000     60.55000000     71.70000000
C34     34.87000000     52.57000000     66.10000000
OS35     34.49000000     51.20000000     66.31000000
C36     33.22000000     51.05000000     66.77000000
O37     32.61000000     51.92000000     67.38000000
C38     32.79000000     49.59000000     66.72000000
C39     32.27000000     49.14000000     68.08000000
C40     31.83000000     47.68000000     68.11000000
C41     31.68000000     47.16000000     69.55000000
C42     30.66000000     47.98000000     70.32000000
C43     31.32000000     48.73000000     71.49000000
C44     30.45000000     49.92000000     71.89000000
C45     29.20000000     49.49000000     72.65000000
C46     28.32000000     50.71000000     72.92000000
C47     27.19000000     50.36000000     73.90000000
C48     27.77000000     50.08000000     75.28000000
C49     26.67000000     49.77000000     76.29000000
C50     27.27000000     49.52000000     77.68000000
C51     26.17000000     49.22000000     78.70000000
C52     26.77000000     48.98000000     80.09000000
 C1     55.37000000     46.45000000     34.79000000
 C2     53.57000000     47.44000000     33.58000000
 C3     54.30000000     48.50000000     35.54000000
 N4     54.76000000     47.72000000     34.39000000
 C5     55.70000000     48.50000000     33.55000000
 C6     56.98000000     49.11000000     34.16000000
OS7     57.84000000     48.18000000     34.81000000
 P8     59.37000000     48.61000000     34.81000000
OM9     59.35000000     50.02000000     35.21000000
OM10     60.02000000     47.61000000     35.66000000
OS11     59.69000000     48.39000000     33.29000000
C12     59.89000000     47.02000000     32.94000000
C13     58.83000000     46.46000000     31.98000000
OS14     59.09000000     45.06000000     31.71000000
C15     58.29000000     44.16000000     32.33000000
O16     57.38000000     44.48000000     33.10000000
C17     58.74000000     42.75000000     32.00000000
C18     57.96000000     42.13000000     30.84000000
C19     58.74000000     40.98000000     30.20000000
C20     57.94000000     40.24000000     29.14000000
C21     56.80000000     39.46000000     29.79000000
C22     56.13000000     38.49000000     28.81000000
C23     55.07000000     37.69000000     29.57000000
C24     54.43000000     36.59000000     28.78000000
C25     54.46000000     35.29000000     29.11000000
C26     53.81000000     34.17000000     28.36000000
C27     54.81000000     33.20000000     27.72000000
C28     55.65000000     33.88000000     26.65000000
C29     56.50000000     32.87000000     25.88000000
C30     55.60000000     31.99000000     25.02000000
C31     56.42000000     31.02000000     24.16000000
C32     55.50000000     30.16000000     23.29000000
C33     54.76000000     31.03000000     22.27000000
C34     58.81000000     47.37000000     30.73000000
OS35     57.57000000     47.38000000     29.98000000
C36     56.87000000     48.54000000     30.01000000
O37     57.11000000     49.46000000     30.80000000
C38     55.58000000     48.44000000     29.22000000
C39     55.82000000     48.00000000     27.78000000
C40     54.50000000     47.64000000     27.11000000
C41     54.77000000     47.05000000     25.72000000
C42     53.51000000     46.49000000     25.08000000
C43     53.89000000     45.85000000     23.74000000
C44     54.85000000     44.68000000     23.99000000
C45     55.56000000     44.28000000     22.70000000
C46     56.59000000     43.17000000     22.97000000
C47     57.49000000     42.99000000     21.75000000
C48     58.38000000     44.22000000     21.56000000
C49     59.26000000     44.09000000     20.31000000
C50     58.41000000     44.14000000     19.04000000
C51     59.29000000     44.05000000     17.79000000
C52     60.16000000     45.31000000     17.65000000
 C1     58.30000000     44.62000000     41.27000000
 C2     58.34000000     42.68000000     42.65000000
 C3     56.78000000     42.81000000     40.82000000
 N4     58.12000000     43.16000000     41.29000000
 C5     59.15000000     42.50000000     40.45000000
 C6     59.36000000     42.97000000     39.00000000
OS7     60.70000000     43.42000000     38.80000000
 P8     60.77000000     44.74000000     37.94000000
OM9     59.74000000     45.57000000     38.59000000
OM10     62.18000000     45.12000000     38.01000000
OS11     60.39000000     44.06000000     36.56000000
C12     61.47000000     43.38000000     35.92000000
C13     61.54000000     41.87000000     36.26000000
OS14     62.88000000     41.30000000     36.14000000
C15     63.13000000     40.14000000     36.80000000
O16     62.47000000     39.79000000     37.78000000
C17     64.51000000     39.63000000     36.43000000
C18     65.45000000     39.62000000     37.63000000
C19     66.91000000     39.82000000     37.22000000
C20     67.52000000     38.63000000     36.49000000
C21     67.65000000     37.44000000     37.45000000
C22     68.46000000     36.30000000     36.83000000
C23     69.94000000     36.68000000     36.75000000
C24     70.77000000     35.50000000     36.35000000
C25     71.70000000     35.44000000     35.39000000
C26     72.48000000     34.20000000     35.05000000
C27     73.77000000     34.10000000     35.87000000
C28     74.83000000     35.10000000     35.40000000
C29     76.05000000     35.04000000     36.31000000
C30     76.60000000     33.61000000     36.38000000
C31     77.78000000     33.52000000     37.34000000
C32     78.22000000     32.07000000     37.53000000
C33     78.77000000     31.48000000     36.23000000
C34     60.41000000     41.22000000     35.44000000
OS35     60.75000000     41.01000000     34.06000000
C36     60.73000000     39.71000000     33.68000000
O37     60.14000000     38.83000000     34.31000000
C38     61.39000000     39.53000000     32.33000000
C39     62.05000000     38.16000000     32.21000000
C40     63.24000000     38.04000000     33.17000000
C41     64.07000000     36.80000000     32.84000000
C42     65.24000000     36.64000000     33.82000000
C43     66.35000000     35.84000000     33.14000000
C44     66.94000000     36.69000000     32.02000000
C45     67.85000000     35.87000000     31.10000000
C46     68.35000000     36.74000000     29.95000000
C47     69.03000000     35.88000000     28.89000000
C48     68.01000000     34.96000000     28.23000000
C49     68.66000000     34.07000000     27.17000000
C50     67.63000000     33.15000000     26.53000000
C51     68.27000000     32.26000000     25.46000000
C52     68.77000000     33.10000000     24.28000000
 C1     37.84000000     40.37000000     43.68000000
 C2     38.51000000     42.09000000     45.20000000
 C3     36.20000000     41.54000000     44.92000000
 N4     37.49000000     41.69000000     44.23000000
 C5     37.32000000     42.72000000     43.18000000
 C6     38.52000000     43.14000000     42.29000000
OS7     39.00000000     42.16000000     41.37000000
 P8     38.52000000     42.42000000     39.88000000
OM9     38.62000000     43.87000000     39.71000000
OM10     39.31000000     41.56000000     39.01000000
OS11     37.00000000     42.03000000     40.00000000
C12     36.73000000     40.62000000     39.98000000
C13     35.35000000     40.27000000     40.58000000
OS14     35.23000000     38.88000000     40.96000000
C15     34.69000000     38.63000000     42.19000000
O16     35.02000000     39.28000000     43.19000000
C17     34.05000000     37.26000000     42.25000000
C18     34.90000000     36.18000000     41.58000000
C19     34.05000000     34.95000000     41.26000000
C20     33.74000000     34.11000000     42.49000000
C21     34.99000000     33.39000000     42.99000000
C22     34.62000000     32.33000000     44.02000000
C23     33.79000000     31.23000000     43.37000000
C24     33.43000000     30.13000000     44.33000000
C25     32.33000000     30.07000000     45.08000000
C26     31.95000000     28.98000000     46.03000000
C27     30.68000000     28.26000000     45.55000000
C28     29.52000000     29.26000000     45.47000000
C29     28.24000000     28.61000000     44.94000000
C30     27.62000000     27.70000000     46.00000000
C31     26.31000000     27.09000000     45.48000000
C32     25.64000000     26.24000000     46.56000000
C33     25.16000000     27.12000000     47.71000000
C34     34.30000000     40.77000000     39.57000000
OS35     32.95000000     40.82000000     40.08000000
C36     32.08000000     41.61000000     39.41000000
O37     32.44000000     42.44000000     38.56000000
C38     30.72000000     41.60000000     40.08000000
C39     29.67000000     40.81000000     39.31000000
C40     28.35000000     40.83000000     40.09000000
C41     27.35000000     39.81000000     39.56000000
C42     26.18000000     39.64000000     40.53000000
C43     25.25000000     38.53000000     40.05000000
C44     25.99000000     37.20000000     39.99000000
C45     25.17000000     36.15000000     39.24000000
C46     25.95000000     34.86000000     39.01000000
C47     25.18000000     33.96000000     38.05000000
C48     25.13000000     34.60000000     36.66000000
C49     24.18000000     33.86000000     35.72000000
C50     24.12000000     34.57000000     34.36000000
C51     23.05000000     33.95000000     33.47000000
C52     23.41000000     32.51000000     33.09000000
 C1     28.96000000     50.15000000     51.67000000
 C2     29.84000000     50.85000000     53.75000000
 C3     27.86000000     51.87000000     52.89000000
 N4     28.60000000     50.62000000     53.02000000
 C5     27.83000000     49.66000000     53.84000000
 C6     26.72000000     48.80000000     53.20000000
OS7     27.32000000     47.83000000     52.34000000
 P8     26.32000000     47.39000000     51.20000000
OM9     27.16000000     46.55000000     50.34000000
OM10     25.20000000     46.91000000     52.00000000
OS11     26.06000000     48.80000000     50.57000000
C12     24.89000000     48.79000000     49.77000000
C13     24.25000000     50.17000000     49.54000000
OS14     23.56000000     50.65000000     50.73000000
C15     24.20000000     51.55000000     51.53000000
O16     25.30000000     52.04000000     51.25000000
C17     23.36000000     51.85000000     52.76000000
C18     24.21000000     51.81000000     54.03000000
C19     23.38000000     51.99000000     55.30000000
C20     24.30000000     51.87000000     56.51000000
C21     23.54000000     51.67000000     57.82000000
C22     23.19000000     52.99000000     58.52000000
C23     22.66000000     52.68000000     59.92000000
C24     22.44000000     53.92000000     60.73000000
C25     21.27000000     54.56000000     60.89000000
C26     21.04000000     55.81000000     61.69000000
C27     19.72000000     55.73000000     62.47000000
C28     18.54000000     55.59000000     61.51000000
C29     17.21000000     55.56000000     62.26000000
C30     16.92000000     56.92000000     62.90000000
C31     15.56000000     56.91000000     63.61000000
C32     15.27000000     58.27000000     64.23000000
C33     15.11000000     59.34000000     63.15000000
C34     23.32000000     50.03000000     48.33000000
OS35     23.25000000     51.22000000     47.53000000
C36     22.23000000     51.26000000     46.63000000
O37     21.50000000     50.30000000     46.38000000
C38     22.19000000     52.59000000     45.90000000
C39     20.75000000     53.09000000     45.80000000
C40     20.70000000     54.62000000     45.81000000
C41     19.30000000     55.09000000     46.21000000
C42     19.32000000     56.55000000     46.66000000
C43     18.02000000     56.89000000     47.40000000
C44     18.11000000     58.25000000     48.09000000
C45     16.89000000     58.46000000     48.99000000
C46     16.98000000     59.76000000     49.79000000
C47     15.82000000     59.85000000     50.78000000
C48     15.96000000     58.77000000     51.85000000
C49     14.79000000     58.75000000     52.83000000
C50     14.99000000     57.63000000     53.85000000
C51     13.79000000     57.49000000     54.79000000
C52     14.00000000     56.33000000     55.76000000
 C1     43.41000000     54.70000000     41.39000000
 C2     42.60000000     56.73000000     42.38000000
 C3     44.74000000     56.70000000     41.39000000
 N4     43.38000000     56.17000000     41.27000000
 C5     42.83000000     56.69000000     40.00000000
 C6     41.61000000     56.02000000     39.34000000
OS7     40.47000000     55.81000000     40.17000000
 P8     39.75000000     54.46000000     39.80000000
OM9     40.87000000     53.51000000     39.90000000
OM10     38.61000000     54.32000000     40.71000000
OS11     39.40000000     54.64000000     38.28000000
C12     38.22000000     55.41000000     37.99000000
C13     38.50000000     56.61000000     37.06000000
OS14     38.69000000     57.88000000     37.74000000
C15     39.67000000     58.66000000     37.19000000
O16     40.81000000     58.21000000     37.05000000
C17     39.32000000     60.12000000     37.41000000
C18     40.49000000     61.08000000     37.15000000
C19     39.99000000     62.52000000     37.27000000
C20     39.14000000     62.90000000     36.06000000
C21     38.23000000     64.10000000     36.36000000
C22     39.03000000     65.32000000     36.82000000
C23     38.11000000     66.51000000     37.07000000
C24     37.41000000     66.91000000     35.80000000
C25     36.27000000     67.60000000     35.69000000
C26     35.61000000     67.95000000     34.39000000
C27     36.30000000     69.13000000     33.69000000
C28     36.10000000     70.43000000     34.46000000
C29     36.89000000     71.56000000     33.79000000
C30     36.38000000     71.82000000     32.38000000
C31     37.21000000     72.91000000     31.69000000
C32     36.73000000     73.15000000     30.26000000
C33     35.33000000     73.75000000     30.24000000
C34     37.34000000     56.68000000     36.05000000
OS35     37.54000000     55.89000000     34.87000000
C36     37.11000000     56.50000000     33.73000000
O37     37.05000000     57.72000000     33.60000000
C38     37.05000000     55.50000000     32.58000000
C39     36.93000000     56.18000000     31.22000000
C40     38.30000000     56.58000000     30.68000000
C41     38.16000000     57.50000000     29.47000000
C42     37.59000000     58.85000000     29.93000000
C43     37.38000000     59.77000000     28.73000000
C44     36.83000000     61.13000000     29.17000000
C45     36.63000000     62.01000000     27.94000000
C46     36.08000000     63.39000000     28.31000000
C47     35.87000000     64.20000000     27.03000000
C48     34.80000000     63.55000000     26.16000000
C49     34.72000000     64.22000000     24.78000000
C50     36.00000000     63.97000000     23.99000000
C51     35.90000000     64.56000000     22.58000000
C52     34.89000000     63.80000000     21.74000000
 C1     46.53000000     48.85000000     38.17000000
 C2     47.35000000     46.67000000     38.69000000
 C3     45.05000000     46.97000000     38.36000000
 N4     46.37000000     47.42000000     37.91000000
 C5     46.49000000     47.05000000     36.47000000
 C6     47.65000000     47.63000000     35.62000000
OS7     48.96000000     47.58000000     36.21000000
 P8     49.82000000     46.26000000     36.07000000
OM9     50.98000000     46.34000000     35.19000000
OM10     50.13000000     46.07000000     37.51000000
OS11     48.84000000     45.07000000     35.72000000
C12     49.02000000     44.44000000     34.44000000
C13     47.88000000     43.47000000     34.03000000
OS14     48.25000000     42.29000000     33.28000000
C15     47.72000000     41.13000000     33.76000000
O16     47.39000000     41.04000000     34.94000000
C17     47.71000000     39.98000000     32.76000000
C18     48.34000000     38.69000000     33.29000000
C19     47.51000000     37.81000000     34.23000000
C20     46.40000000     37.04000000     33.51000000
C21     45.99000000     35.82000000     34.34000000
C22     44.72000000     35.17000000     33.79000000
C23     44.46000000     33.80000000     34.42000000
C24     43.08000000     33.31000000     34.10000000
C25     42.13000000     34.06000000     33.53000000
C26     40.71000000     33.75000000     33.16000000
C27     40.32000000     32.27000000     33.09000000
C28     40.84000000     31.60000000     31.82000000
C29     40.06000000     30.32000000     31.53000000
C30     38.60000000     30.67000000     31.23000000
C31     37.79000000     29.43000000     30.83000000
C32     36.32000000     29.81000000     30.63000000
C33     36.14000000     30.77000000     29.45000000
C34     46.84000000     44.29000000     33.24000000
OS35     45.97000000     45.14000000     33.99000000
C36     44.91000000     45.57000000     33.25000000
O37     43.88000000     45.97000000     33.79000000
C38     45.08000000     45.15000000     31.79000000
C39     44.23000000     45.92000000     30.77000000
C40     42.75000000     45.53000000     30.83000000
C41     42.09000000     45.68000000     29.45000000
C42     40.57000000     45.54000000     29.53000000
C43     39.97000000     45.44000000     28.13000000
C44     40.32000000     44.08000000     27.53000000
C45     39.82000000     43.91000000     26.10000000
C46     40.06000000     42.46000000     25.64000000
C47     39.74000000     42.27000000     24.16000000
C48     40.78000000     42.98000000     23.29000000
C49     40.52000000     42.70000000     21.81000000
C50     39.20000000     43.33000000     21.35000000
C51     38.95000000     43.04000000     19.87000000
C52     39.98000000     43.75000000     18.99000000
 C1     41.97000000     53.44000000     36.81000000
 C2     44.12000000     53.28000000     37.85000000
 C3     42.43000000     51.62000000     38.24000000
 N4     43.03000000     52.53000000     37.25000000
 C5     43.46000000     51.83000000     36.02000000
 C6     44.34000000     50.56000000     36.06000000
OS7     43.83000000     49.39000000     36.72000000
 P8     42.61000000     48.62000000     36.03000000
OM9     42.60000000     47.26000000     36.58000000
OM10     41.46000000     49.49000000     36.31000000
OS11     43.06000000     48.75000000     34.54000000
C12     42.00000000     48.64000000     33.59000000
C13     41.79000000     49.88000000     32.70000000
OS14     41.06000000     51.00000000     33.29000000
C15     41.63000000     52.20000000     32.99000000
O16     42.85000000     52.32000000     33.03000000
C17     40.72000000     53.37000000     33.31000000
C18     41.48000000     54.64000000     32.95000000
C19     40.87000000     55.90000000     33.57000000
C20     41.45000000     57.15000000     32.91000000
C21     40.70000000     58.40000000     33.37000000
C22     41.03000000     59.59000000     32.47000000
C23     40.22000000     60.83000000     32.84000000
C24     40.45000000     61.94000000     31.87000000
C25     41.22000000     61.86000000     30.78000000
C26     41.49000000     62.95000000     29.78000000
C27     40.73000000     62.72000000     28.48000000
C28     41.20000000     61.44000000     27.78000000
C29     40.37000000     61.18000000     26.53000000
C30     40.63000000     62.23000000     25.45000000
C31     39.71000000     62.02000000     24.25000000
C32     40.03000000     63.00000000     23.13000000
C33     41.38000000     62.67000000     22.50000000
C34     41.11000000     49.34000000     31.43000000
OS35     42.05000000     49.20000000     30.35000000
C36     41.51000000     49.49000000     29.13000000
O37     40.32000000     49.72000000     28.96000000
C38     42.58000000     49.41000000     28.05000000
C39     42.09000000     50.02000000     26.73000000
C40     41.97000000     51.55000000     26.81000000
C41     41.56000000     52.09000000     25.44000000
C42     42.74000000     52.00000000     24.48000000
C43     42.28000000     52.07000000     23.02000000
C44     41.58000000     53.39000000     22.71000000
C45     41.03000000     53.33000000     21.28000000
C46     40.19000000     54.55000000     20.92000000
C47     39.59000000     54.36000000     19.53000000
C48     38.60000000     53.19000000     19.54000000
C49     38.15000000     52.83000000     18.13000000
C50     39.32000000     52.24000000     17.33000000
C51     38.88000000     51.81000000     15.93000000
C52     37.93000000     50.61000000     16.01000000
 C1     68.36000000     42.57000000     43.56000000
 C2     69.02000000     42.50000000     41.27000000
 C3     67.03000000     43.65000000     41.83000000
 N4     68.39000000     43.33000000     42.30000000
 C5     69.23000000     44.53000000     42.43000000
 C6     68.78000000     45.68000000     43.36000000
OS7     68.60000000     45.33000000     44.74000000
 P8     69.31000000     46.31000000     45.74000000
OM9     70.14000000     47.21000000     44.95000000
OM10     68.24000000     46.85000000     46.61000000
OS11     70.23000000     45.34000000     46.56000000
C12     71.46000000     44.99000000     45.91000000
C13     71.52000000     43.54000000     45.39000000
OS14     71.83000000     42.57000000     46.43000000
C15     71.43000000     41.28000000     46.24000000
O16     70.42000000     41.01000000     45.58000000
C17     72.00000000     40.39000000     47.33000000
C18     71.29000000     39.03000000     47.33000000
C19     71.68000000     38.11000000     48.49000000
C20     71.08000000     36.72000000     48.26000000
C21     71.03000000     35.84000000     49.51000000
C22     72.36000000     35.17000000     49.86000000
C23     72.13000000     34.22000000     51.05000000
C24     73.36000000     33.46000000     51.45000000
C25     73.76000000     33.20000000     52.70000000
C26     74.99000000     32.43000000     53.09000000
C27     75.75000000     33.03000000     54.28000000
C28     76.24000000     34.45000000     53.97000000
C29     77.24000000     34.95000000     55.01000000
C30     78.56000000     34.19000000     54.87000000
C31     79.63000000     34.74000000     55.81000000
C32     80.94000000     33.96000000     55.66000000
C33     81.53000000     34.15000000     54.26000000
C34     72.53000000     43.54000000     44.23000000
OS35     72.03000000     42.85000000     43.07000000
C36     73.00000000     42.43000000     42.21000000
O37     74.13000000     42.89000000     42.20000000
C38     72.42000000     41.53000000     41.13000000
C39     73.42000000     40.48000000     40.67000000
C40     72.72000000     39.32000000     39.97000000
C41     73.58000000     38.06000000     40.09000000
C42     72.82000000     36.81000000     39.65000000
C43     73.43000000     35.57000000     40.32000000
C44     74.91000000     35.45000000     39.97000000
C45     75.56000000     34.21000000     40.59000000
C46     75.67000000     34.30000000     42.11000000
C47     76.57000000     33.17000000     42.62000000
C48     77.97000000     33.36000000     42.04000000
C49     78.96000000     32.29000000     42.50000000
C50     80.32000000     32.55000000     41.86000000
C51     81.36000000     31.51000000     42.28000000
C52     82.71000000     31.80000000     41.63000000
 C1     62.92000000     43.01000000     55.97000000
 C2     61.04000000     41.64000000     56.37000000
 C3     61.73000000     41.89000000     54.17000000
 N4     62.23000000     41.79000000     55.54000000
 C5     63.14000000     40.64000000     55.77000000
 C6     64.24000000     40.39000000     54.71000000
OS7     64.98000000     41.56000000     54.36000000
 P8     65.29000000     41.62000000     52.82000000
OM9     63.97000000     41.46000000     52.18000000
OM10     65.99000000     42.89000000     52.61000000
OS11     66.18000000     40.33000000     52.70000000
C12     67.60000000     40.53000000     52.70000000
C13     68.30000000     41.02000000     53.98000000
OS14     69.57000000     41.65000000     53.68000000
C15     69.90000000     42.78000000     54.37000000
O16     69.11000000     43.73000000     54.40000000
C17     71.41000000     42.93000000     54.36000000
C18     72.11000000     41.57000000     54.33000000
C19     72.24000000     40.92000000     55.71000000
C20     73.63000000     41.18000000     56.30000000
C21     74.71000000     40.40000000     55.57000000
C22     76.10000000     40.81000000     56.06000000
C23     77.21000000     40.12000000     55.26000000
C24     78.52000000     40.82000000     55.43000000
C25     78.76000000     41.84000000     56.26000000
C26     80.01000000     42.65000000     56.46000000
C27     81.17000000     42.30000000     55.52000000
C28     82.03000000     41.15000000     56.04000000
C29     82.79000000     41.58000000     57.29000000
C30     83.66000000     40.44000000     57.82000000
C31     84.42000000     40.87000000     59.08000000
C32     85.29000000     39.72000000     59.60000000
C33     84.42000000     38.55000000     60.07000000
C34     68.40000000     39.82000000     54.95000000
OS35     67.64000000     39.99000000     56.15000000
C36     67.86000000     39.05000000     57.12000000
O37     68.03000000     37.87000000     56.84000000
C38     67.19000000     39.51000000     58.41000000
C39     67.41000000     38.55000000     59.57000000
C40     68.69000000     38.85000000     60.34000000
C41     68.97000000     37.78000000     61.39000000
C42     70.25000000     38.12000000     62.16000000
C43     70.80000000     36.90000000     62.89000000