#B3LYP/6-31+G(d) OPT FREQ

6100, Energy = -95921.57215871 au

0 1
 C1     67.87000000     45.01000000     58.08000000
 C2     67.27000000     43.25000000     56.66000000
 C3     66.17000000     45.46000000     56.57000000
 N4     67.42000000     44.71000000     56.72000000
 C5     68.38000000     45.09000000     55.66000000
 C6     69.32000000     46.29000000     55.83000000
OS7     68.71000000     47.55000000     56.11000000
 P8     69.35000000     48.33000000     57.35000000
OM9     69.38000000     49.67000000     56.76000000
OM10     68.42000000     47.89000000     58.39000000
OS11     70.81000000     47.74000000     57.56000000
C12     71.00000000     46.97000000     58.75000000
C13     71.72000000     45.64000000     58.47000000
OS14     71.25000000     44.53000000     59.29000000
C15     70.91000000     43.38000000     58.64000000
O16     70.46000000     43.39000000     57.50000000
C17     70.55000000     42.30000000     59.65000000
C18     69.66000000     41.25000000     59.01000000
C19     69.09000000     40.22000000     59.99000000
C20     70.16000000     39.38000000     60.68000000
C21     69.47000000     38.24000000     61.43000000
C22     70.50000000     37.42000000     62.21000000
C23     69.88000000     36.12000000     62.73000000
C24     70.89000000     35.34000000     63.52000000
C25     72.05000000     35.83000000     63.97000000
C26     73.09000000     35.05000000     64.73000000
C27     72.78000000     33.55000000     64.71000000
C28     73.85000000     32.76000000     65.46000000
C29     73.60000000     31.26000000     65.30000000
C30     73.82000000     30.83000000     63.85000000
C31     73.54000000     29.34000000     63.67000000
C32     73.82000000     28.90000000     62.23000000
C33     75.32000000     28.93000000     61.95000000
C34     73.22000000     45.97000000     58.41000000
OS35     74.10000000     44.94000000     57.91000000
C36     74.25000000     44.84000000     56.56000000
O37     73.46000000     45.29000000     55.73000000
C38     75.32000000     43.81000000     56.23000000
C39     76.60000000     44.02000000     57.04000000
C40     77.69000000     43.03000000     56.62000000
C41     77.25000000     41.60000000     56.90000000
C42     78.28000000     40.56000000     56.44000000
C43     79.43000000     40.39000000     57.43000000
C44     78.94000000     39.72000000     58.72000000
C45     80.13000000     39.28000000     59.58000000
C46     79.65000000     38.63000000     60.88000000
C47     80.83000000     38.03000000     61.65000000
C48     81.83000000     39.10000000     62.08000000
C49     82.98000000     38.49000000     62.88000000
C50     83.82000000     37.55000000     62.00000000
C51     84.97000000     36.94000000     62.80000000
C52     85.98000000     38.01000000     63.21000000
 C1     63.12000000     51.11000000     57.78000000
 C2     61.81000000     49.37000000     58.70000000
 C3     63.30000000     48.84000000     56.93000000
 N4     63.12000000     49.68000000     58.12000000
 C5     64.15000000     49.44000000     59.16000000
 C6     65.62000000     49.29000000     58.73000000
OS7     66.13000000     50.29000000     57.84000000
 P8     66.82000000     51.54000000     58.55000000
OM9     67.45000000     52.24000000     57.42000000
OM10     65.70000000     52.17000000     59.25000000
OS11     67.86000000     50.90000000     59.53000000
C12     67.62000000     51.03000000     60.94000000
C13     68.38000000     49.95000000     61.72000000
OS14     68.05000000     49.86000000     63.13000000
C15     67.12000000     48.96000000     63.56000000
O16     66.25000000     48.44000000     62.85000000
C17     67.22000000     48.83000000     65.07000000
C18     66.06000000     49.51000000     65.79000000
C19     66.32000000     49.58000000     67.30000000
C20     65.08000000     50.12000000     68.02000000
C21     65.30000000     50.33000000     69.51000000
C22     65.61000000     49.02000000     70.23000000
C23     65.52000000     49.19000000     71.75000000
C24     66.51000000     50.16000000     72.32000000
C25     66.22000000     51.34000000     72.90000000
C26     67.21000000     52.30000000     73.49000000
C27     67.17000000     52.23000000     75.01000000
C28     68.22000000     53.14000000     75.65000000
C29     68.16000000     53.01000000     77.17000000
C30     68.51000000     51.57000000     77.58000000
C31     68.47000000     51.40000000     79.10000000
C32     68.79000000     49.96000000     79.49000000
C33     70.23000000     49.59000000     79.13000000
C34     69.87000000     50.27000000     61.51000000
OS35     70.69000000     49.15000000     61.12000000
C36     71.72000000     48.84000000     61.95000000
O37     72.43000000     47.85000000     61.77000000
C38     71.93000000     49.87000000     63.05000000
C39     72.35000000     49.20000000     64.36000000
C40     71.15000000     48.54000000     65.04000000
C41     71.60000000     47.70000000     66.23000000
C42     70.43000000     47.05000000     66.97000000
C43     70.99000000     45.97000000     67.90000000
C44     72.00000000     46.58000000     68.87000000
C45     72.87000000     45.52000000     69.54000000
C46     74.00000000     46.21000000     70.31000000
C47     75.06000000     45.21000000     70.77000000
C48     76.22000000     45.94000000     71.44000000
C49     77.34000000     44.97000000     71.82000000
C50     76.88000000     44.01000000     72.92000000
C51     78.02000000     43.07000000     73.32000000
C52     78.38000000     42.13000000     72.17000000
 C1     48.97000000     37.86000000     49.90000000
 C2     48.56000000     39.25000000     51.81000000
 C3     46.73000000     38.42000000     50.52000000
 N4     48.07000000     38.11000000     51.03000000
 C5     48.04000000     36.94000000     51.93000000
 C6     47.62000000     35.56000000     51.38000000
OS7     46.27000000     35.41000000     50.96000000
 P8     45.93000000     33.93000000     50.55000000
OM9     44.57000000     33.99000000     50.02000000
OM10     47.03000000     33.60000000     49.64000000
OS11     45.96000000     33.19000000     51.95000000
C12     47.03000000     32.27000000     52.14000000
C13     47.52000000     32.29000000     53.60000000
OS14     48.95000000     32.06000000     53.69000000
C15     49.76000000     33.15000000     53.67000000
O16     49.34000000     34.30000000     53.85000000
C17     51.23000000     32.75000000     53.63000000
C18     51.78000000     32.58000000     55.04000000
C19     53.24000000     32.13000000     54.97000000
C20     53.85000000     31.95000000     56.36000000
C21     55.26000000     31.37000000     56.24000000
C22     55.85000000     31.10000000     57.63000000
C23     54.90000000     30.21000000     58.43000000
C24     55.47000000     29.85000000     59.77000000
C25     55.35000000     28.65000000     60.34000000
C26     55.88000000     28.20000000     61.67000000
C27     56.95000000     27.13000000     61.49000000
C28     56.39000000     25.96000000     60.69000000
C29     57.38000000     24.80000000     60.63000000
C30     57.52000000     24.16000000     62.02000000
C31     58.44000000     22.94000000     61.98000000
C32     58.51000000     22.29000000     63.36000000
C33     57.14000000     21.73000000     63.77000000
C34     46.59000000     31.35000000     54.41000000
OS35     46.47000000     31.56000000     55.83000000
C36     45.37000000     32.23000000     56.27000000
O37     44.99000000     33.27000000     55.72000000
C38     45.23000000     32.06000000     57.78000000
C39     45.18000000     30.60000000     58.22000000
C40     45.11000000     30.55000000     59.75000000
C41     45.17000000     29.12000000     60.27000000
C42     45.19000000     29.10000000     61.80000000
C43     45.29000000     27.67000000     62.32000000
C44     46.63000000     27.05000000     61.95000000
C45     46.69000000     25.59000000     62.39000000
C46     48.02000000     24.95000000     61.99000000
C47     48.04000000     23.47000000     62.35000000
C48     47.00000000     22.71000000     61.53000000
C49     47.06000000     21.21000000     61.81000000
C50     46.61000000     20.89000000     63.24000000
C51     46.68000000     19.39000000     63.51000000
C52     45.66000000     18.64000000     62.65000000
 C1     45.29000000     50.04000000     67.00000000
 C2     43.57000000     51.02000000     68.29000000
 C3     43.62000000     51.48000000     65.96000000
 N4     43.88000000     50.45000000     66.97000000
 C5     43.00000000     49.29000000     66.79000000
 C6     42.98000000     48.40000000     65.52000000
OS7     44.11000000     47.65000000     65.10000000
 P8     44.45000000     46.38000000     66.01000000
OM9     45.69000000     46.92000000     66.57000000
OM10     44.53000000     45.27000000     65.07000000
OS11     43.37000000     46.23000000     67.14000000
C12     43.95000000     45.96000000     68.42000000
C13     43.44000000     46.86000000     69.55000000
OS14     44.32000000     46.84000000     70.69000000
C15     44.94000000     48.02000000     70.94000000
O16     44.90000000     48.96000000     70.14000000
C17     45.89000000     47.93000000     72.13000000
C18     47.30000000     48.17000000     71.61000000
C19     48.42000000     47.97000000     72.63000000
C20     49.75000000     48.09000000     71.88000000
C21     50.99000000     47.96000000     72.77000000
C22     51.11000000     49.15000000     73.72000000
C23     52.52000000     49.21000000     74.31000000
C24     52.61000000     50.25000000     75.39000000
C25     51.58000000     50.93000000     75.91000000
C26     51.68000000     51.96000000     76.99000000
C27     51.95000000     51.32000000     78.35000000
C28     50.76000000     50.49000000     78.83000000
C29     51.13000000     49.73000000     80.11000000
C30     51.49000000     50.71000000     81.23000000
C31     51.88000000     49.95000000     82.50000000
C32     52.29000000     50.92000000     83.61000000
C33     51.11000000     51.77000000     84.05000000
C34     41.95000000     46.52000000     69.80000000
OS35     41.22000000     47.53000000     70.52000000
C36     40.56000000     48.47000000     69.79000000
O37     40.61000000     48.54000000     68.56000000
C38     39.93000000     49.53000000     70.68000000
C39     38.40000000     49.49000000     70.63000000
C40     37.80000000     48.30000000     71.38000000
C41     37.97000000     48.41000000     72.90000000
C42     39.05000000     47.47000000     73.43000000
C43     39.36000000     47.76000000     74.90000000
C44     40.55000000     46.92000000     75.38000000
C45     40.88000000     47.28000000     76.83000000
C46     42.07000000     46.48000000     77.36000000
C47     42.34000000     46.87000000     78.81000000
C48     41.18000000     46.43000000     79.71000000
C49     41.36000000     46.96000000     81.13000000
C50     41.22000000     48.48000000     81.16000000
C51     41.33000000     49.02000000     82.59000000
C52     40.13000000     48.58000000     83.43000000
 C1     48.46000000     55.99000000     61.14000000
 C2     46.23000000     56.83000000     60.95000000
 C3     46.78000000     54.53000000     60.48000000
 N4     47.04000000     55.68000000     61.36000000
 C5     46.88000000     55.40000000     62.81000000
 C6     45.68000000     54.55000000     63.33000000
OS7     45.55000000     53.18000000     62.89000000
 P8     46.62000000     52.16000000     63.42000000
OM9     46.17000000     50.83000000     63.00000000
OM10     47.89000000     52.64000000     62.88000000
OS11     46.52000000     52.27000000     64.98000000
C12     47.74000000     52.58000000     65.65000000
C13     47.51000000     53.50000000     66.87000000
OS14     47.37000000     54.90000000     66.54000000
C15     46.21000000     55.48000000     66.95000000
O16     45.13000000     55.14000000     66.45000000
C17     46.54000000     56.90000000     67.40000000
C18     45.57000000     57.47000000     68.44000000
C19     46.29000000     58.51000000     69.30000000
C20     45.36000000     59.54000000     69.93000000
C21     46.18000000     60.60000000     70.68000000
C22     45.38000000     61.89000000     70.90000000
C23     44.33000000     61.77000000     72.01000000
C24     43.33000000     62.88000000     71.89000000
C25     43.41000000     63.90000000     71.02000000
C26     42.40000000     64.99000000     70.77000000
C27     42.64000000     66.34000000     71.44000000
C28     42.37000000     66.30000000     72.94000000
C29     41.72000000     67.61000000     73.40000000
C30     40.31000000     67.71000000     72.82000000
C31     39.58000000     68.97000000     73.32000000
C32     38.18000000     69.04000000     72.71000000
C33     37.44000000     70.29000000     73.18000000
C34     48.71000000     53.29000000     67.80000000
OS35     48.51000000     52.34000000     68.87000000
C36     47.96000000     52.86000000     70.00000000
O37     47.48000000     54.00000000     70.06000000
C38     47.96000000     51.85000000     71.13000000
C39     47.00000000     52.24000000     72.27000000
C40     45.55000000     51.94000000     71.91000000
C41     44.63000000     52.17000000     73.11000000
C42     43.18000000     51.78000000     72.80000000
C43     42.29000000     52.02000000     74.02000000
C44     42.18000000     53.52000000     74.31000000
C45     41.46000000     53.78000000     75.64000000
C46     41.35000000     55.29000000     75.90000000
C47     40.79000000     55.58000000     77.29000000
C48     41.79000000     55.16000000     78.37000000
C49     41.33000000     55.58000000     79.76000000
C50     40.08000000     54.81000000     80.19000000
C51     39.64000000     55.22000000     81.60000000
C52     40.69000000     54.82000000     82.64000000
 C1     59.57000000     57.13000000     63.12000000
 C2     58.72000000     57.20000000     60.89000000
 C3     61.03000000     57.62000000     61.32000000
 N4     59.86000000     56.81000000     61.72000000
 C5     60.12000000     55.36000000     61.61000000
 C6     60.14000000     54.69000000     60.22000000
OS7     60.90000000     55.41000000     59.24000000
 P8     62.04000000     54.56000000     58.57000000
OM9     61.20000000     53.58000000     57.86000000
OM10     62.77000000     55.54000000     57.76000000
OS11     62.84000000     54.01000000     59.79000000
C12     63.76000000     54.90000000     60.43000000
C13     63.79000000     54.65000000     61.95000000
OS14     64.14000000     55.82000000     62.74000000
C15     63.32000000     56.13000000     63.78000000
O16     62.19000000     55.66000000     63.86000000
C17     63.85000000     57.27000000     64.63000000
C18     63.11000000     57.38000000     65.96000000
C19     61.76000000     58.09000000     65.82000000
C20     60.98000000     58.12000000     67.14000000
C21     60.46000000     56.74000000     67.52000000
C22     59.71000000     56.81000000     68.85000000
C23     58.42000000     57.62000000     68.72000000
C24     57.70000000     57.72000000     70.04000000
C25     57.48000000     58.84000000     70.74000000
C26     56.78000000     58.91000000     72.06000000
C27     57.29000000     60.06000000     72.93000000
C28     58.77000000     59.89000000     73.28000000
C29     59.28000000     61.06000000     74.12000000
C30     58.65000000     61.06000000     75.51000000
C31     59.12000000     62.26000000     76.33000000
C32     58.56000000     62.22000000     77.75000000
C33     59.16000000     61.06000000     78.54000000
C34     64.57000000     53.33000000     62.17000000
OS35     64.38000000     52.78000000     63.49000000
C36     65.28000000     53.20000000     64.42000000
O37     66.49000000     53.33000000     64.21000000
C38     64.66000000     53.09000000     65.80000000
C39     65.36000000     54.00000000     66.81000000
C40     64.55000000     54.06000000     68.10000000
C41     65.31000000     54.84000000     69.18000000
C42     64.50000000     54.92000000     70.47000000
C43     65.33000000     55.59000000     71.56000000
C44     64.56000000     55.72000000     72.87000000
C45     65.47000000     56.28000000     73.96000000
C46     65.91000000     57.70000000     73.63000000
C47     67.00000000     58.17000000     74.60000000
C48     68.28000000     57.36000000     74.37000000
C49     69.39000000     57.79000000     75.33000000
C50     70.65000000     56.95000000     75.09000000
C51     71.77000000     57.36000000     76.06000000
C52     73.02000000     56.51000000     75.83000000
 C1     71.18000000     53.08000000     56.44000000
 C2     72.66000000     53.11000000     58.36000000
 C3     70.53000000     52.13000000     58.49000000
 N4     71.67000000     52.33000000     57.60000000
 C5     72.17000000     50.99000000     57.24000000
 C6     73.30000000     50.86000000     56.20000000
OS7     73.51000000     49.53000000     55.74000000
 P8     74.63000000     49.32000000     54.65000000
OM9     74.00000000     48.45000000     53.65000000
OM10     75.07000000     50.67000000     54.27000000
OS11     75.76000000     48.58000000     55.46000000
C12     76.57000000     49.43000000     56.28000000
C13     76.28000000     49.23000000     57.77000000
OS14     76.82000000     50.26000000     58.64000000
C15     75.91000000     50.83000000     59.47000000
O16     74.74000000     51.00000000     59.12000000
C17     76.58000000     51.56000000     60.62000000
C18     75.65000000     51.65000000     61.83000000
C19     74.68000000     52.83000000     61.75000000
C20     75.25000000     54.06000000     62.47000000
C21     74.30000000     55.25000000     62.33000000
C22     74.54000000     56.27000000     63.45000000
C23     73.56000000     57.44000000     63.35000000
C24     73.62000000     58.28000000     64.59000000
C25     74.31000000     57.95000000     65.69000000
C26     74.43000000     58.72000000     66.97000000
C27     75.83000000     59.34000000     67.09000000
C28     76.89000000     58.25000000     66.96000000
C29     78.30000000     58.83000000     67.01000000
C30     78.69000000     59.22000000     68.43000000
C31     80.12000000     59.76000000     68.47000000
C32     80.57000000     60.03000000     69.90000000
C33     80.72000000     58.71000000     70.67000000
C34     76.75000000     47.81000000     58.09000000
OS35     76.19000000     47.26000000     59.30000000
C36     77.00000000     46.43000000     60.00000000
O37     78.16000000     46.14000000     59.69000000
C38     76.28000000     45.88000000     61.22000000
C39     77.08000000     46.19000000     62.49000000
C40     76.98000000     47.67000000     62.85000000
C41     77.79000000     47.97000000     64.11000000
C42     77.81000000     49.46000000     64.45000000
C43     79.23000000     50.03000000     64.35000000
C44     79.69000000     50.17000000     62.89000000
C45     81.18000000     50.45000000     62.81000000
C46     81.62000000     50.62000000     61.35000000
C47     83.15000000     50.65000000     61.25000000
C48     83.72000000     49.27000000     61.59000000
C49     85.25000000     49.26000000     61.54000000
C50     85.83000000     50.09000000     62.69000000
C51     87.36000000     50.03000000     62.68000000
C52     87.86000000     48.62000000     62.99000000
 C1     45.36000000     39.87000000     42.79000000
 C2     44.62000000     39.44000000     45.03000000
 C3     45.69000000     37.73000000     43.74000000
 N4     44.77000000     38.87000000     43.69000000
 C5     43.50000000     38.34000000     43.14000000
 C6     42.20000000     39.18000000     43.07000000
OS7     42.16000000     40.37000000     42.28000000
 P8     42.09000000     40.25000000     40.70000000
OM9     41.18000000     41.34000000     40.31000000
OM10     43.51000000     40.32000000     40.36000000
OS11     41.53000000     38.82000000     40.34000000
C12     42.46000000     37.93000000     39.70000000
C13     42.16000000     36.46000000     40.03000000
OS14     43.29000000     35.58000000     39.81000000
C15     43.85000000     35.00000000     40.92000000
O16     43.74000000     35.45000000     42.06000000
C17     44.76000000     33.84000000     40.54000000
C18     45.63000000     33.46000000     41.74000000
C19     45.84000000     31.95000000     41.84000000
C20     46.90000000     31.61000000     42.89000000
C21     46.91000000     30.11000000     43.16000000
C22     45.88000000     29.74000000     44.23000000
C23     45.47000000     28.27000000     44.09000000
C24     44.61000000     28.10000000     42.87000000
C25     43.88000000     27.05000000     42.49000000
C26     43.71000000     25.72000000     43.17000000
C27     43.94000000     24.58000000     42.17000000
C28     42.92000000     24.66000000     41.04000000
C29     43.18000000     23.60000000     39.97000000
C30     42.91000000     22.19000000     40.51000000
C31     43.10000000     21.15000000     39.41000000
C32     42.85000000     19.74000000     39.94000000
C33     41.40000000     19.55000000     40.36000000
C34     40.89000000     36.10000000     39.24000000
OS35     40.11000000     35.05000000     39.82000000
C36     39.02000000     34.66000000     39.12000000
O37     38.72000000     35.12000000     38.02000000
C38     38.18000000     33.70000000     39.95000000
C39     36.99000000     33.13000000     39.19000000
C40     37.43000000     31.99000000     38.27000000
C41     37.83000000     30.75000000     39.07000000
C42     38.22000000     29.64000000     38.09000000
C43     37.00000000     29.27000000     37.24000000
C44     37.39000000     28.33000000     36.10000000
C45     36.16000000     28.04000000     35.24000000
C46     36.51000000     27.20000000     34.01000000
C47     35.26000000     26.94000000     33.18000000
C48     34.71000000     28.25000000     32.60000000
C49     33.39000000     28.01000000     31.88000000
C50     32.30000000     27.62000000     32.88000000
C51     30.99000000     27.29000000     32.16000000
C52     30.42000000     28.53000000     31.47000000
 C1     45.14000000     32.79000000     46.81000000
 C2     43.92000000     33.77000000     44.97000000
 C3     43.05000000     31.90000000     46.17000000
 N4     43.82000000     33.15000000     46.29000000
 C5     43.11000000     34.02000000     47.25000000
 C6     43.64000000     35.45000000     47.53000000
OS7     43.43000000     36.49000000     46.56000000
 P8     41.93000000     36.97000000     46.43000000
OM9     41.22000000     36.45000000     47.59000000
OM10     42.02000000     38.42000000     46.19000000
OS11     41.61000000     36.12000000     45.16000000
C12     40.22000000     36.20000000     44.87000000
C13     39.81000000     35.53000000     43.55000000
OS14     38.49000000     35.95000000     43.10000000
C15     38.49000000     37.05000000     42.29000000
O16     39.36000000     37.92000000     42.39000000
C17     37.16000000     37.28000000     41.60000000
C18     37.41000000     37.84000000     40.20000000
C19     36.14000000     38.37000000     39.53000000
C20     35.11000000     37.28000000     39.24000000
C21     33.90000000     37.89000000     38.53000000
C22     32.80000000     36.86000000     38.28000000
C23     31.62000000     37.47000000     37.51000000
C24     31.98000000     37.80000000     36.09000000
C25     31.91000000     36.97000000     35.05000000
C26     32.27000000     37.30000000     33.63000000
C27     31.38000000     36.60000000     32.61000000
C28     31.53000000     35.08000000     32.72000000
C29     30.68000000     34.36000000     31.67000000
C30     31.29000000     34.50000000     30.28000000
C31     30.42000000     33.80000000     29.23000000
C32     30.37000000     32.29000000     29.47000000
C33     31.73000000     31.63000000     29.22000000
C34     40.01000000     34.02000000     43.74000000
OS35     40.18000000     33.29000000     42.52000000
C36     41.17000000     32.35000000     42.43000000
O37     41.91000000     32.04000000     43.37000000
C38     41.32000000     31.87000000     41.00000000
C39     41.90000000     30.46000000     40.90000000
C40     42.21000000     30.16000000     39.44000000
C41     42.39000000     28.66000000     39.21000000
C42     42.61000000     28.36000000     37.72000000
C43     42.31000000     26.89000000     37.44000000
C44     40.84000000     26.63000000     37.75000000
C45     40.40000000     25.19000000     37.47000000
C46     38.93000000     25.03000000     37.86000000
C47     38.41000000     23.63000000     37.55000000
C48     39.09000000     22.58000000     38.44000000
C49     38.52000000     21.19000000     38.16000000
C50     38.84000000     20.75000000     36.74000000
C51     38.27000000     19.36000000     36.45000000
C52     38.98000000     18.30000000     37.29000000
 C1     52.87000000     59.87000000     58.29000000
 C2     51.64000000     58.19000000     59.36000000
 C3     53.46000000     57.59000000     57.90000000
 N4     52.99000000     58.55000000     58.90000000
 C5     53.90000000     58.61000000     60.07000000
 C6     55.33000000     59.17000000     59.87000000
OS7     56.13000000     58.47000000     58.91000000
 P8     56.98000000     59.46000000     58.02000000
OM9     57.25000000     58.51000000     56.92000000
OM10     56.11000000     60.61000000     57.79000000
OS11     58.24000000     59.63000000     58.94000000
C12     58.46000000     60.93000000     59.52000000
C13     58.54000000     60.90000000     61.07000000
OS14     57.28000000     61.05000000     61.76000000
C15     57.10000000     60.22000000     62.83000000
O16     57.12000000     59.01000000     62.62000000
C17     56.16000000     60.86000000     63.83000000
C18     56.25000000     60.23000000     65.21000000
C19     55.02000000     60.68000000     66.00000000
C20     55.00000000     60.23000000     67.46000000
C21     53.59000000     60.49000000     67.99000000
C22     53.48000000     60.33000000     69.50000000
C23     54.09000000     61.53000000     70.23000000
C24     53.73000000     61.52000000     71.68000000
C25     52.85000000     62.35000000     72.26000000
C26     52.46000000     62.34000000     73.71000000
C27     52.81000000     63.63000000     74.46000000
C28     54.32000000     63.86000000     74.50000000
C29     54.67000000     65.00000000     75.46000000
C30     54.35000000     64.58000000     76.90000000
C31     54.73000000     65.67000000     77.90000000
C32     54.42000000     65.20000000     79.32000000
C33     55.31000000     64.02000000     79.71000000
C34     59.51000000     62.02000000     61.49000000
OS35     60.82000000     61.55000000     61.83000000
C36     61.26000000     62.10000000     63.00000000
O37     60.47000000     62.50000000     63.86000000
C38     62.74000000     61.85000000     63.21000000
C39     63.25000000     62.49000000     64.51000000
C40     62.95000000     61.60000000     65.72000000
C41     63.28000000     62.28000000     67.05000000
C42     63.03000000     61.31000000     68.20000000
C43     63.19000000     61.99000000     69.56000000
C44     62.02000000     62.94000000     69.83000000
C45     62.23000000     63.69000000     71.14000000
C46     61.08000000     64.66000000     71.41000000
C47     61.40000000     65.53000000     72.63000000
C48     62.61000000     66.41000000     72.33000000
C49     62.98000000     67.29000000     73.52000000
C50     64.22000000     68.13000000     73.19000000
C51     64.60000000     69.04000000     74.36000000
C52     65.83000000     69.89000000     74.02000000
 C1     69.62000000     47.03000000     47.48000000
 C2     71.47000000     45.76000000     48.14000000
 C3     70.20000000     45.00000000     46.32000000
 N4     70.72000000     46.20000000     46.97000000
 C5     71.63000000     46.97000000     46.09000000
 C6     71.12000000     47.70000000     44.82000000
OS7     70.51000000     46.87000000     43.83000000
 P8     71.46000000     46.00000000     42.89000000
OM9     71.43000000     44.72000000     43.59000000
OM10     70.82000000     46.15000000     41.59000000
OS11     72.85000000     46.69000000     43.00000000
C12     73.98000000     45.82000000     43.07000000
C13     75.21000000     46.44000000     43.78000000
OS14     75.58000000     47.76000000     43.34000000
C15     75.05000000     48.82000000     44.00000000
O16     74.25000000     48.71000000     44.93000000
C17     75.62000000     50.12000000     43.47000000
C18     76.47000000     50.80000000     44.54000000
C19     77.75000000     50.02000000     44.80000000
C20     78.60000000     50.78000000     45.82000000
C21     77.82000000     50.95000000     47.12000000
C22     78.65000000     51.73000000     48.14000000
C23     77.83000000     52.01000000     49.40000000
C24     78.59000000     52.90000000     50.34000000
C25     79.83000000     53.37000000     50.17000000
C26     80.57000000     54.26000000     51.12000000
C27     81.67000000     55.06000000     50.42000000
C28     82.68000000     54.10000000     49.78000000
C29     83.90000000     54.86000000     49.24000000
C30     84.75000000     55.36000000     50.41000000
C31     86.02000000     56.05000000     49.90000000
C32     86.90000000     56.48000000     51.08000000
C33     87.42000000     55.27000000     51.85000000
C34     76.40000000     45.49000000     43.59000000
OS35     76.37000000     44.21000000     44.24000000
C36     77.61000000     43.85000000     44.69000000
O37     78.58000000     44.61000000     44.68000000
C38     77.65000000     42.42000000     45.19000000
C39     78.88000000     42.15000000     46.06000000
C40     78.70000000     42.65000000     47.49000000
C41     80.00000000     42.48000000     48.27000000
C42     79.84000000     42.78000000     49.77000000
C43     81.23000000     42.82000000     50.40000000