#B3LYP/6-31+G(d) OPT FREQ

6100, Energy = -17980.51619817 au

0 1
 C1     65.62000000     45.51000000     48.69000000
 C2     67.02000000     45.94000000     46.79000000
 C3     66.92000000     47.48000000     48.61000000
 N4     66.86000000     46.09000000     48.24000000
 C5     67.95000000     45.28000000     48.84000000
 C6     69.37000000     45.55000000     48.36000000
OS7     69.79000000     46.86000000     48.68000000
 P8     70.91000000     46.89000000     49.79000000
OM9     71.43000000     48.19000000     49.42000000
OM10     69.72000000     46.80000000     50.67000000
OS11     71.80000000     45.77000000     49.17000000
C12     73.10000000     45.83000000     49.73000000
C13     74.06000000     44.86000000     49.04000000
OS14     74.70000000     43.85000000     49.85000000
C15     74.07000000     42.65000000     49.97000000
O16     73.05000000     42.52000000     50.64000000
C17     75.11000000     41.55000000     49.79000000
C18     74.70000000     40.44000000     48.82000000
C19     73.73000000     39.43000000     49.44000000
C20     73.24000000     38.47000000     48.35000000
C21     72.45000000     37.31000000     48.97000000
C22     73.34000000     36.61000000     49.99000000
C23     73.12000000     35.10000000     50.01000000
C24     73.57000000     34.49000000     48.71000000
C25     74.81000000     34.07000000     48.42000000
C26     75.23000000     33.48000000     47.11000000
C27     75.81000000     32.07000000     47.23000000
C28     77.15000000     32.07000000     47.98000000
C29     77.88000000     30.75000000     47.71000000
C30     78.24000000     30.67000000     46.22000000
C31     79.03000000     29.40000000     45.89000000
C32     79.31000000     29.34000000     44.38000000
C33     80.20000000     30.50000000     43.94000000
C34     75.08000000     45.77000000     48.38000000
OS35     75.23000000     45.57000000     46.96000000
C36     76.36000000     46.16000000     46.51000000
O37     77.13000000     46.75000000     47.25000000
C38     76.48000000     46.11000000     45.00000000
C39     77.71000000     46.84000000     44.44000000
C40     78.98000000     45.99000000     44.27000000
C41     79.82000000     45.77000000     45.53000000
C42     79.46000000     44.50000000     46.30000000
C43     80.19000000     43.28000000     45.74000000
C44     79.70000000     41.99000000     46.39000000
C45     80.82000000     40.96000000     46.29000000
C46     81.95000000     41.36000000     47.24000000
C47     83.30000000     40.80000000     46.78000000
C48     83.77000000     41.56000000     45.54000000
C49     85.14000000     41.08000000     45.07000000
C50     85.57000000     41.82000000     43.80000000
C51     86.91000000     41.29000000     43.30000000
C52     87.33000000     42.01000000     42.01000000
 C1     47.39000000     40.81000000     60.19000000
 C2     48.11000000     42.81000000     60.96000000
 C3     47.57000000     42.63000000     58.59000000
 N4     47.23000000     42.25000000     59.94000000
 C5     45.84000000     42.60000000     60.26000000
 C6     44.69000000     42.25000000     59.32000000
OS7     44.74000000     40.99000000     58.72000000
 P8     43.80000000     39.73000000     59.08000000
OM9     42.98000000     40.63000000     58.23000000
OM10     45.22000000     39.43000000     58.93000000
OS11     43.55000000     40.24000000     60.53000000
C12     44.32000000     39.63000000     61.56000000
C13     44.18000000     40.49000000     62.80000000
OS14     45.36000000     40.40000000     63.65000000
C15     46.25000000     41.44000000     63.72000000
O16     46.14000000     42.45000000     63.03000000
C17     47.30000000     41.31000000     64.80000000
C18     47.52000000     42.71000000     65.36000000
C19     47.91000000     42.71000000     66.83000000
C20     46.93000000     42.13000000     67.87000000
C21     45.96000000     43.10000000     68.56000000
C22     46.54000000     44.07000000     69.59000000
C23     46.57000000     43.55000000     71.02000000
C24     47.40000000     44.43000000     71.91000000
C25     48.44000000     44.05000000     72.67000000
C26     49.31000000     44.88000000     73.57000000
C27     49.62000000     44.13000000     74.86000000
C28     50.56000000     42.94000000     74.63000000
C29     50.51000000     41.99000000     75.82000000
C30     50.95000000     42.70000000     77.10000000
C31     50.72000000     41.80000000     78.32000000
C32     51.05000000     42.55000000     79.61000000
C33     50.74000000     41.70000000     80.84000000
C34     42.77000000     40.06000000     63.28000000
OS35     41.75000000     40.98000000     63.75000000
C36     40.73000000     40.31000000     64.39000000
O37     40.59000000     39.12000000     64.12000000
C38     39.62000000     41.17000000     64.99000000
C39     39.03000000     40.68000000     66.34000000
C40     37.85000000     41.51000000     66.91000000
C41     37.40000000     41.24000000     68.37000000
C42     38.07000000     42.04000000     69.51000000
C43     37.92000000     41.38000000     70.90000000
C44     39.06000000     41.66000000     71.92000000
C45     39.36000000     40.49000000     72.88000000
C46     40.84000000     40.06000000     72.82000000
C47     41.26000000     38.94000000     73.79000000
C48     40.57000000     37.60000000     73.53000000
C49     40.97000000     36.60000000     74.63000000
C50     39.85000000     35.58000000     74.87000000
C51     40.12000000     34.77000000     76.13000000
C52     38.89000000     33.92000000     76.50000000
 C1     46.03000000     39.92000000     56.32000000
 C2     45.80000000     40.72000000     54.30000000
 C3     44.85000000     42.04000000     55.96000000
 N4     45.08000000     40.67000000     55.53000000
 C5     43.78000000     39.96000000     55.47000000
 C6     43.64000000     38.43000000     55.49000000
OS7     44.51000000     38.02000000     54.46000000
 P8     45.32000000     36.66000000     54.65000000
OM9     44.04000000     36.00000000     54.87000000
OM10     45.95000000     37.77000000     53.90000000
OS11     45.77000000     37.02000000     56.10000000
C12     46.01000000     35.87000000     56.89000000
C13     45.39000000     36.05000000     58.27000000
OS14     46.27000000     35.52000000     59.28000000
C15     46.17000000     36.21000000     60.44000000
O16     45.33000000     37.08000000     60.61000000
C17     47.42000000     36.16000000     61.28000000
C18     47.70000000     37.65000000     61.43000000
C19     48.07000000     38.03000000     62.85000000
C20     47.14000000     37.35000000     63.84000000
C21     47.54000000     37.78000000     65.25000000
C22     46.90000000     36.91000000     66.33000000
C23     47.10000000     37.62000000     67.66000000
C24     46.32000000     37.00000000     68.77000000
C25     46.75000000     36.03000000     69.59000000
C26     45.95000000     35.48000000     70.72000000
C27     46.50000000     34.17000000     71.29000000
C28     45.93000000     32.93000000     70.60000000
C29     46.31000000     31.70000000     71.42000000
C30     45.81000000     31.88000000     72.86000000
C31     46.35000000     30.78000000     73.79000000
C32     45.78000000     30.96000000     75.20000000
C33     44.27000000     30.72000000     75.20000000
C34     43.89000000     35.70000000     58.14000000
OS35     43.03000000     36.52000000     58.94000000
C36     42.55000000     35.81000000     60.00000000
O37     42.64000000     34.59000000     60.06000000
C38     41.80000000     36.72000000     60.96000000
C39     40.80000000     35.95000000     61.82000000
C40     41.51000000     35.09000000     62.87000000
C41     40.54000000     34.09000000     63.49000000
C42     41.28000000     33.06000000     64.34000000
C43     40.32000000     32.00000000     64.86000000
C44     39.71000000     31.22000000     63.70000000
C45     38.99000000     29.99000000     64.24000000
C46     40.03000000     28.99000000     64.75000000
C47     39.37000000     27.90000000     65.58000000
C48     38.43000000     27.04000000     64.73000000
C49     37.67000000     26.09000000     65.65000000
C50     36.78000000     26.89000000     66.60000000
C51     36.06000000     25.96000000     67.59000000
C52     35.07000000     25.06000000     66.86000000
 C1     41.38000000     45.56000000     58.76000000
 C2     43.42000000     45.02000000     57.67000000
 C3     43.12000000     47.09000000     58.74000000
 N4     42.82000000     45.68000000     58.82000000
 C5     43.24000000     45.04000000     60.07000000
 C6     42.85000000     45.29000000     61.54000000
OS7     41.48000000     45.27000000     61.80000000
 P8     41.22000000     45.79000000     63.30000000
OM9     42.49000000     46.36000000     63.77000000
OM10     40.06000000     46.65000000     63.31000000
OS11     41.00000000     44.44000000     63.97000000
C12     40.74000000     44.85000000     65.31000000
C13     39.49000000     44.41000000     66.05000000
OS14     38.24000000     45.03000000     65.64000000
C15     37.62000000     44.57000000     64.50000000
O16     38.16000000     43.83000000     63.68000000
C17     36.23000000     45.14000000     64.34000000
C18     35.54000000     44.38000000     63.20000000
C19     34.16000000     43.90000000     63.63000000
C20     33.74000000     42.79000000     62.68000000
C21     32.49000000     42.04000000     63.12000000
C22     32.32000000     40.71000000     62.39000000
C23     30.89000000     40.24000000     62.66000000
C24     30.65000000     38.78000000     62.45000000
C25     29.41000000     38.29000000     62.34000000
C26     28.96000000     36.87000000     62.20000000
C27     27.67000000     36.70000000     63.01000000
C28     27.88000000     37.29000000     64.41000000
C29     26.64000000     37.13000000     65.29000000
C30     26.49000000     35.67000000     65.72000000
C31     25.35000000     35.51000000     66.72000000
C32     25.29000000     34.06000000     67.20000000
C33     26.56000000     33.69000000     67.96000000
C34     39.90000000     44.59000000     67.53000000
OS35     40.63000000     43.48000000     68.10000000
C36     41.64000000     43.79000000     68.97000000
O37     42.36000000     44.77000000     68.79000000
C38     41.96000000     42.69000000     70.00000000
C39     42.28000000     41.22000000     69.64000000
C40     41.05000000     40.40000000     69.22000000
C41     41.11000000     38.87000000     69.34000000
C42     39.83000000     38.19000000     68.83000000
C43     38.72000000     38.10000000     69.89000000
C44     37.39000000     37.55000000     69.35000000
C45     36.34000000     37.47000000     70.47000000
C46     35.49000000     38.73000000     70.63000000
C47     34.70000000     38.70000000     71.94000000
C48     35.64000000     38.96000000     73.12000000
C49     35.01000000     38.55000000     74.45000000
C50     34.89000000     37.02000000     74.51000000
C51     34.33000000     36.55000000     75.85000000
C52     35.34000000     36.78000000     76.97000000
 C1     49.49000000     55.64000000     40.89000000
 C2     51.70000000     56.70000000     41.30000000
 C3     51.53000000     54.73000000     40.18000000
 N4     50.82000000     55.96000000     40.40000000
 C5     50.79000000     56.67000000     39.11000000
 C6     49.43000000     57.13000000     38.53000000
OS7     48.54000000     56.17000000     37.99000000
 P8     49.05000000     55.57000000     36.60000000
OM9     49.28000000     54.47000000     37.55000000
OM10     48.03000000     55.34000000     35.61000000
OS11     50.36000000     56.39000000     36.18000000
C12     50.19000000     57.53000000     35.32000000
C13     50.91000000     58.82000000     35.81000000
OS14     50.05000000     59.93000000     36.18000000
C15     50.11000000     60.55000000     37.40000000
O16     50.36000000     59.93000000     38.44000000
C17     49.48000000     61.93000000     37.30000000
C18     49.14000000     62.76000000     38.55000000
C19     48.45000000     64.05000000     38.08000000
C20     48.13000000     65.12000000     39.12000000
C21     47.50000000     66.43000000     38.60000000
C22     48.57000000     67.53000000     38.60000000
C23     48.33000000     68.92000000     38.01000000
C24     49.70000000     69.52000000     37.79000000
C25     50.34000000     69.57000000     36.61000000
C26     51.75000000     70.02000000     36.31000000
C27     51.93000000     71.51000000     36.01000000
C28     51.16000000     71.90000000     34.76000000
C29     51.17000000     73.40000000     34.49000000
C30     52.50000000     73.86000000     33.89000000
C31     52.43000000     75.35000000     33.54000000
C32     53.71000000     75.82000000     32.86000000
C33     53.85000000     75.17000000     31.48000000
C34     51.82000000     59.27000000     34.66000000
OS35     53.22000000     58.89000000     34.69000000
C36     53.55000000     57.84000000     33.89000000
O37     53.39000000     56.68000000     34.28000000
C38     54.70000000     58.27000000     32.99000000
C39     54.32000000     58.18000000     31.51000000
C40     53.34000000     59.29000000     31.13000000
C41     54.02000000     60.61000000     30.78000000
C42     53.16000000     61.78000000     31.26000000
C43     53.63000000     63.09000000     30.62000000
C44     52.82000000     63.32000000     29.34000000
C45     53.20000000     64.60000000     28.62000000
C46     51.95000000     65.21000000     27.99000000
C47     52.31000000     66.14000000     26.83000000
C48     52.66000000     65.26000000     25.63000000
C49     53.10000000     66.11000000     24.44000000
C50     54.47000000     66.72000000     24.70000000
C51     54.92000000     67.52000000     23.48000000
C52     55.08000000     66.59000000     22.27000000
 C1     51.59000000     61.80000000     49.28000000
 C2     53.76000000     61.84000000     48.55000000
 C3     53.33000000     60.82000000     50.56000000
 N4     52.94000000     61.95000000     49.74000000
 C5     53.13000000     63.31000000     50.30000000
 C6     54.41000000     63.56000000     51.13000000
OS7     55.47000000     62.67000000     50.76000000
 P8     56.78000000     63.16000000     50.01000000
OM9     57.02000000     63.92000000     51.21000000
OM10     56.68000000     61.69000000     49.77000000
OS11     55.93000000     63.89000000     48.93000000
C12     56.40000000     65.20000000     48.58000000
C13     55.20000000     66.12000000     48.34000000
OS14     55.35000000     67.15000000     47.34000000
C15     54.18000000     67.44000000     46.72000000
O16     53.30000000     66.58000000     46.64000000
C17     54.34000000     68.64000000     45.81000000
C18     54.55000000     68.13000000     44.39000000
C19     54.73000000     69.25000000     43.37000000
C20     54.12000000     68.84000000     42.03000000
C21     55.10000000     68.67000000     40.88000000
C22     54.46000000     69.14000000     39.58000000
C23     54.23000000     70.65000000     39.64000000
C24     52.79000000     71.06000000     39.64000000
C25     52.40000000     72.34000000     39.77000000
C26     51.03000000     72.93000000     39.74000000
C27     50.97000000     73.95000000     38.61000000
C28     52.26000000     74.77000000     38.64000000
C29     52.32000000     75.79000000     37.51000000
C30     51.35000000     76.94000000     37.76000000
C31     51.45000000     77.99000000     36.66000000
C32     50.58000000     79.20000000     37.00000000
C33     51.14000000     79.92000000     38.23000000
C34     54.81000000     66.67000000     49.71000000
OS35     53.39000000     66.68000000     49.89000000
C36     52.93000000     67.00000000     51.12000000
O37     53.14000000     66.22000000     52.06000000
C38     51.61000000     67.71000000     50.89000000
C39     51.67000000     69.16000000     51.35000000
C40     52.60000000     69.96000000     50.43000000
C41     52.46000000     71.46000000     50.69000000
C42     53.27000000     72.20000000     49.63000000
C43     53.13000000     73.71000000     49.77000000
C44     54.07000000     74.38000000     48.77000000
C45     54.11000000     75.89000000     49.01000000
C46     55.17000000     76.52000000     48.10000000
C47     55.29000000     78.01000000     48.39000000
C48     55.82000000     78.26000000     49.80000000
C49     55.88000000     79.76000000     50.09000000
C50     54.46000000     80.35000000     50.12000000
C51     54.51000000     81.87000000     50.28000000
C52     55.09000000     82.25000000     51.64000000
 C1     56.62000000     59.99000000     40.78000000
 C2     55.41000000     57.87000000     40.70000000
 C3     54.81000000     59.67000000     42.18000000
 N4     55.34000000     59.31000000     40.87000000
 C5     54.55000000     59.76000000     39.71000000
 C6     53.08000000     59.32000000     39.55000000
OS7     52.19000000     59.60000000     40.65000000
 P8     51.77000000     61.14000000     40.84000000
OM9     50.34000000     61.32000000     40.99000000
OM10     52.45000000     61.20000000     42.13000000
OS11     52.47000000     61.89000000     39.68000000
C12     53.19000000     62.98000000     40.19000000
C13     54.52000000     63.21000000     39.48000000
OS14     55.30000000     64.17000000     40.26000000
C15     55.95000000     63.79000000     41.41000000
O16     55.78000000     62.68000000     41.95000000
C17     56.53000000     64.97000000     42.18000000
C18     57.44000000     66.02000000     41.51000000
C19     58.93000000     65.67000000     41.46000000
C20     59.90000000     66.86000000     41.32000000
C21     61.35000000     66.53000000     40.93000000
C22     62.17000000     65.79000000     41.98000000
C23     63.29000000     66.53000000     42.72000000
C24     64.55000000     66.65000000     41.93000000
C25     65.03000000     67.69000000     41.23000000
C26     66.30000000     67.63000000     40.45000000
C27     67.21000000     68.83000000     40.69000000
C28     66.51000000     70.12000000     40.27000000
C29     67.55000000     71.23000000     40.10000000
C30     68.44000000     70.86000000     38.91000000
C31     69.50000000     71.93000000     38.64000000
C32     70.35000000     71.52000000     37.44000000
C33     69.51000000     71.46000000     36.16000000
C34     54.21000000     63.36000000     37.96000000
OS35     54.64000000     62.30000000     37.06000000
C36     54.34000000     62.46000000     35.71000000
O37     53.29000000     62.97000000     35.35000000
C38     55.23000000     61.63000000     34.78000000
C39     55.92000000     62.44000000     33.66000000
C40     57.04000000     61.72000000     32.87000000
C41     57.71000000     62.63000000     31.81000000
C42     59.14000000     62.24000000     31.39000000
C43     59.97000000     63.30000000     30.64000000
C44     60.75000000     64.20000000     31.61000000
C45     61.30000000     65.52000000     31.06000000
C46     61.36000000     66.55000000     32.21000000
C47     61.95000000     67.90000000     31.79000000
C48     61.16000000     68.53000000     30.65000000
C49     61.82000000     69.85000000     30.23000000
C50     61.72000000     70.02000000     28.72000000
C51     62.42000000     71.31000000     28.27000000
C52     62.45000000     71.40000000     26.74000000
 C1     64.51000000     50.94000000     45.90000000
 C2     63.68000000     52.22000000     44.08000000
 C3     62.74000000     50.10000000     44.51000000
 N4     63.96000000     50.87000000     44.55000000
 C5     64.91000000     50.20000000     43.65000000
 C6     66.00000000     51.02000000     42.97000000
OS7     66.98000000     51.31000000     43.96000000
 P8     68.01000000     52.56000000     43.96000000
OM9     66.77000000     52.82000000     44.75000000
OM10     68.97000000     51.64000000     44.50000000
OS11     67.99000000     52.46000000     42.38000000
C12     69.06000000     51.67000000     41.83000000
C13     68.68000000     50.90000000     40.55000000
OS14     68.95000000     49.46000000     40.60000000
C15     68.03000000     48.46000000     40.75000000
O16     66.97000000     48.54000000     41.41000000
C17     68.78000000     47.16000000     40.54000000
C18     68.24000000     46.32000000     39.38000000
C19     69.20000000     45.18000000     39.03000000
C20     68.71000000     44.21000000     37.95000000
C21     69.73000000     43.08000000     37.92000000
C22     69.62000000     42.09000000     36.76000000
C23     70.87000000     41.21000000     36.84000000
C24     71.05000000     40.26000000     35.69000000
C25     71.73000000     39.11000000     35.77000000
C26     71.97000000     38.12000000     34.68000000
C27     73.38000000     37.53000000     34.72000000
C28     74.44000000     38.63000000     34.68000000
C29     75.75000000     38.10000000     34.08000000
C30     75.53000000     37.84000000     32.59000000
C31     76.80000000     37.35000000     31.90000000
C32     76.54000000     37.16000000     30.40000000
C33     76.22000000     38.50000000     29.73000000
C34     69.43000000     51.67000000     39.44000000
OS35     68.68000000     51.94000000     38.24000000
C36     69.20000000     52.94000000     37.46000000
O37     70.09000000     53.69000000     37.83000000
C38     68.40000000     53.15000000     36.18000000
C39     69.32000000     53.03000000     34.96000000
C40     69.58000000     51.56000000     34.68000000
C41     70.63000000     51.28000000     33.60000000
C42     70.62000000     49.78000000     33.30000000
C43     71.74000000     49.38000000     32.35000000
C44     73.09000000     49.73000000     32.96000000
C45     74.21000000     49.36000000     32.00000000
C46     75.50000000     50.08000000     32.39000000
C47     76.56000000     49.76000000     31.34000000
C48     77.83000000     50.60000000     31.53000000
C49     78.86000000     50.16000000     30.49000000
C50     78.27000000     50.31000000     29.09000000
C51     79.24000000     49.78000000     28.03000000
C52     80.49000000     50.66000000     27.96000000
 C1     60.15000000     59.26000000     49.00000000
 C2     60.15000000     59.26000000     49.00000000
 C3     59.23000000     59.33000000     51.15000000
 N4     59.30000000     60.05000000     49.90000000
 C5     59.94000000     61.36000000     50.20000000
 C6     61.47000000     61.60000000     50.04000000
OS7     62.22000000     60.63000000     50.74000000
 P8     62.71000000     61.14000000     52.13000000
OM9     61.91000000     59.96000000     52.56000000
OM10     64.11000000     61.09000000     52.41000000
OS11     62.02000000     62.51000000     52.45000000
C12     63.01000000     63.55000000     52.25000000
C13     62.55000000     64.77000000     51.43000000
OS14     62.46000000     64.60000000     49.98000000
C15     61.38000000     65.11000000     49.30000000
O16     60.33000000     64.45000000     49.19000000
C17     61.61000000     66.52000000     48.76000000
C18     62.13000000     66.69000000     47.32000000
C19     62.01000000     68.16000000     46.90000000
C20     62.55000000     68.54000000     45.51000000
C21     62.21000000     70.00000000     45.15000000
C22     62.75000000     70.54000000     43.81000000
C23     62.14000000     69.85000000     42.59000000
C24     61.89000000     70.71000000     41.38000000
C25     62.18000000     70.50000000     40.09000000
C26     61.77000000     71.43000000     38.98000000
C27     62.89000000     72.04000000     38.13000000
C28     63.90000000     72.84000000     38.94000000
C29     64.81000000     73.65000000     38.02000000
C30     64.04000000     74.81000000     37.40000000
C31     64.97000000     75.78000000     36.67000000
C32     65.93000000     76.46000000     37.65000000
C33     65.18000000     77.39000000     38.61000000
C34     63.55000000     65.85000000     51.88000000
OS35     62.88000000     67.02000000     52.38000000
C36     62.38000000     67.01000000     53.65000000
O37     62.27000000     66.00000000     54.34000000
C38     61.68000000     68.32000000     54.00000000
C39     62.26000000     69.56000000     53.30000000
C40     61.71000000     69.76000000     51.89000000
C41     62.41000000     70.93000000     51.21000000
C42     61.96000000     71.09000000     49.76000000
C43     62.72000000     72.27000000     49.15000000
C44     64.21000000     71.94000000     49.05000000
C45     65.02000000     73.21000000     48.84000000
C46     66.50000000     72.90000000     48.61000000
C47     67.33000000     74.19000000     48.65000000
C48     67.50000000     74.67000000     50.09000000
C49     68.20000000     76.03000000     50.15000000
C50     67.25000000     77.15000000     49.74000000
C51     67.95000000     78.51000000     49.79000000
C52     68.36000000     78.86000000     51.22000000
 C1     35.45000000     55.40000000     57.83000000
 C2     36.11000000     57.50000000     57.34000000
 C3     37.37000000     55.83000000     56.39000000
 N4     36.01000000     56.19000000     56.72000000
 C5     35.24000000     56.28000000     55.48000000
 C6     33.74000000     56.06000000     55.50000000
OS7     33.42000000     54.69000000     55.60000000
 P8     32.00000000     54.43000000     56.31000000
OM9     32.05000000     53.20000000     55.52000000
OM10     32.70000000     54.60000000     57.57000000
OS11     31.14000000     55.65000000     55.89000000
C12     30.87000000     56.52000000     56.97000000
C13     30.76000000     57.97000000     56.51000000
OS14     31.31000000     58.79000000     57.59000000
C15     32.67000000     58.95000000     57.67000000
O16     33.47000000     58.76000000     56.75000000
C17     33.08000000     59.18000000     59.12000000
C18     34.56000000     59.55000000     59.29000000
C19     35.13000000     59.25000000     60.68000000
C20     34.72000000     60.33000000     61.68000000
C21     35.31000000     60.20000000     63.08000000
C22     35.18000000     61.57000000     63.74000000
C23     35.67000000     61.64000000     65.18000000
C24     35.55000000     63.06000000     65.66000000
C25     34.45000000     63.65000000     66.14000000
C26     34.36000000     65.08000000     66.58000000
C27     33.73000000     65.29000000     67.96000000
C28     32.27000000     64.85000000     67.99000000
C29     31.56000000     65.38000000     69.23000000
C30     31.31000000     66.89000000     69.09000000
C31     30.60000000     67.46000000     70.31000000
C32     30.28000000     68.95000000     70.11000000
C33     29.22000000     69.13000000     69.02000000
C34     29.32000000     58.04000000     55.94000000
OS35     28.78000000     59.08000000     55.09000000
C36     27.65000000     58.72000000     54.41000000
O37     27.00000000     57.72000000     54.74000000
C38     27.09000000     59.80000000     53.49000000
C39     27.41000000     61.20000000     54.02000000
C40     26.52000000     62.39000000     53.65000000
C41     27.05000000     63.61000000     54.41000000
C42     26.05000000     64.75000000     54.61000000
C43     25.04000000     64.51000000     55.74000000
C44     25.68000000     64.49000000     57.13000000
C45     24.62000000     64.47000000     58.24000000
C46     25.21000000     64.17000000     59.62000000
C47     24.28000000     64.65000000     60.73000000
C48     22.92000000     63.93000000     60.70000000
C49     21.93000000     64.66000000     61.60000000
C50     21.72000000     66.09000000     61.08000000
C51     20.68000000     66.85000000     61.90000000
C52     19.27000000     66.33000000     61.64000000
 C1     59.60000000     56.28000000     42.97000000
 C2     58.91000000     57.53000000     41.05000000
 C3     57.55000000     57.42000000     43.11000000
 N4     58.87000000     57.47000000     42.53000000
 C5     59.47000000     58.73000000     42.98000000
 C6     60.94000000     58.94000000     42.62000000
OS7     61.73000000     58.07000000     43.41000000
 P8     63.12000000     57.92000000     42.73000000
OM9     63.70000000     57.22000000     43.85000000
OM10     62.57000000     57.12000000     41.65000000
OS11     63.50000000     59.34000000     42.31000000
C12     64.19000000     59.16000000     41.08000000
C13     63.57000000     60.01000000     40.00000000
OS14     63.56000000     59.42000000     38.67000000
C15     62.36000000     59.01000000     38.21000000
O16     61.67000000     58.17000000     38.80000000
C17     62.30000000     59.36000000     36.73000000
C18     60.92000000     59.19000000     36.10000000
C19     60.94000000     59.19000000     34.57000000
C20     59.49000000     59.20000000     34.08000000
C21     59.11000000     58.27000000     32.94000000
C22     59.37000000     58.86000000     31.56000000
C23     58.54000000     58.15000000     30.48000000
C24     58.67000000     58.79000000     29.13000000
C25     59.60000000     58.59000000     28.18000000
C26     59.58000000     59.29000000     26.86000000
C27     60.06000000     58.45000000     25.68000000
C28     61.58000000     58.40000000     25.58000000
C29     62.04000000     58.89000000     24.20000000
C30     61.66000000     60.36000000     24.01000000
C31     62.11000000     60.91000000     22.65000000
C32     61.66000000     62.37000000     22.50000000
C33     62.35000000     63.27000000     23.53000000
C34     64.24000000     61.35000000     40.26000000
OS35     64.07000000     62.40000000     39.30000000
C36     64.53000000     63.55000000     39.84000000
O37     64.58000000     63.70000000     41.05000000
C38     64.51000000     64.69000000     38.84000000
C39     65.73000000     64.66000000     37.92000000
C40     65.46000000     63.73000000     36.74000000
C41     64.50000000     64.39000000     35.75000000
C42     64.41000000     63.58000000     34.46000000
C43     64.44000000     64.58000000     33.31000000