#B3LYP/6-31+G(d) OPT FREQ

6100, Energy = -97243.98227839 au

0 1
 C1     52.17000000     54.54000000     65.62000000
 C2     53.21000000     55.94000000     67.20000000
 C3     54.37000000     54.09000000     66.27000000
 N4     53.44000000     55.17000000     65.97000000
 C5     53.92000000     56.10000000     64.92000000
 C6     54.04000000     55.63000000     63.44000000
OS7     52.82000000     55.19000000     62.82000000
 P8     52.08000000     56.27000000     61.93000000
OM9     53.00000000     56.53000000     60.81000000
OM10     50.77000000     55.70000000     61.59000000
OS11     51.94000000     57.50000000     62.90000000
C12     50.61000000     57.81000000     63.34000000
C13     50.32000000     57.53000000     64.82000000
OS14     49.33000000     56.48000000     65.02000000
C15     49.07000000     56.06000000     66.29000000
O16     49.95000000     56.06000000     67.15000000
C17     47.93000000     55.06000000     66.23000000
C18     47.24000000     54.72000000     67.54000000
C19     46.03000000     53.88000000     67.14000000
C20     45.27000000     53.21000000     68.28000000
C21     44.48000000     54.18000000     69.16000000
C22     43.58000000     53.33000000     70.06000000
C23     42.73000000     54.17000000     71.02000000
C24     41.79000000     53.27000000     71.76000000
C25     42.15000000     52.33000000     72.65000000
C26     41.24000000     51.41000000     73.39000000
C27     40.90000000     51.95000000     74.78000000
C28     42.16000000     52.10000000     75.63000000
C29     41.82000000     52.63000000     77.02000000
C30     41.07000000     51.57000000     77.84000000
C31     40.73000000     52.10000000     79.23000000
C32     40.02000000     51.04000000     80.06000000
C33     39.67000000     51.57000000     81.46000000
C34     50.01000000     58.88000000     65.50000000
OS35     51.04000000     59.88000000     65.54000000
C36     51.91000000     59.89000000     66.60000000
O37     52.39000000     58.86000000     67.09000000
C38     52.59000000     61.24000000     66.64000000
C39     53.19000000     61.59000000     68.00000000
C40     52.12000000     61.80000000     69.08000000
C41     52.73000000     62.43000000     70.33000000
C42     53.97000000     61.65000000     70.77000000
C43     54.52000000     62.15000000     72.11000000
C44     53.66000000     61.64000000     73.27000000
C45     54.24000000     62.10000000     74.61000000
C46     53.47000000     61.49000000     75.78000000
C47     54.01000000     62.02000000     77.11000000
C48     55.46000000     61.57000000     77.34000000
C49     56.03000000     62.22000000     78.60000000
C50     57.49000000     61.82000000     78.83000000
C51     57.62000000     60.36000000     79.27000000
C52     57.06000000     60.16000000     80.68000000
 C1     63.30000000     51.68000000     38.66000000
 C2     61.11000000     52.35000000     39.27000000
 C3     61.46000000     50.71000000     37.54000000
 N4     61.92000000     51.21000000     38.84000000
 C5     61.76000000     50.16000000     39.87000000
 C6     62.81000000     49.05000000     40.02000000
OS7     63.79000000     49.49000000     40.94000000
 P8     65.18000000     48.80000000     40.80000000
OM9     65.86000000     49.22000000     42.03000000
OM10     64.94000000     47.39000000     40.49000000
OS11     65.71000000     49.62000000     39.56000000
C12     66.38000000     48.85000000     38.56000000
C13     65.76000000     48.86000000     37.16000000
OS14     65.18000000     47.58000000     36.85000000
C15     63.98000000     47.63000000     36.19000000
O16     63.23000000     48.60000000     36.33000000
C17     63.56000000     46.24000000     35.76000000
C18     63.13000000     46.15000000     34.29000000
C19     64.32000000     46.11000000     33.32000000
C20     63.94000000     45.34000000     32.05000000
C21     63.48000000     43.94000000     32.47000000
C22     63.28000000     42.93000000     31.34000000
C23     64.58000000     42.33000000     30.83000000
C24     64.30000000     41.09000000     30.04000000
C25     64.00000000     41.03000000     28.74000000
C26     63.70000000     39.80000000     27.94000000
C27     64.90000000     39.31000000     27.13000000
C28     65.42000000     40.42000000     26.22000000
C29     66.48000000     39.90000000     25.25000000
C30     65.82000000     39.12000000     24.11000000
C31     66.85000000     38.69000000     23.07000000
C32     66.17000000     38.01000000     21.88000000
C33     65.31000000     39.00000000     21.10000000
C34     66.88000000     49.22000000     36.17000000
OS35     67.48000000     50.51000000     36.38000000
C36     68.39000000     50.83000000     35.41000000
O37     68.90000000     49.97000000     34.69000000
C38     68.88000000     52.26000000     35.56000000
C39     69.50000000     52.76000000     34.25000000
C40     68.42000000     53.00000000     33.20000000
C41     69.08000000     53.18000000     31.83000000
C42     68.05000000     53.20000000     30.70000000
C43     68.77000000     52.97000000     29.38000000
C44     69.46000000     51.60000000     29.43000000
C45     70.29000000     51.31000000     28.18000000
C46     71.05000000     50.00000000     28.36000000
C47     71.91000000     49.69000000     27.14000000
C48     73.02000000     50.72000000     26.97000000
C49     73.81000000     50.44000000     25.69000000
C50     74.93000000     51.47000000     25.49000000
C51     75.66000000     51.23000000     24.17000000
C52     76.42000000     49.90000000     24.21000000
 C1     55.52000000     54.84000000     60.12000000
 C2     56.79000000     53.01000000     60.90000000
 C3     56.02000000     53.02000000     58.68000000
 N4     56.55000000     53.87000000     59.74000000
 C5     57.82000000     54.49000000     59.27000000
 C6     58.53000000     55.58000000     60.10000000
OS7     57.80000000     56.80000000     60.17000000
 P8     58.76000000     58.04000000     60.28000000
OM9     59.65000000     57.83000000     59.13000000
OM10     57.88000000     59.21000000     60.28000000
OS11     59.49000000     57.86000000     61.65000000
C12     58.68000000     58.10000000     62.80000000
C13     59.51000000     58.23000000     64.10000000
OS14     58.74000000     58.39000000     65.33000000
C15     57.99000000     57.39000000     65.87000000
O16     57.26000000     56.64000000     65.22000000
C17     57.84000000     57.62000000     67.36000000
C18     56.38000000     57.86000000     67.76000000
C19     56.23000000     57.68000000     69.27000000
C20     54.81000000     58.04000000     69.72000000
C21     54.57000000     57.58000000     71.16000000
C22     53.15000000     57.90000000     71.62000000
C23     52.82000000     57.19000000     72.94000000
C24     53.76000000     57.54000000     74.05000000
C25     54.51000000     56.66000000     74.74000000
C26     55.46000000     56.99000000     75.85000000
C27     54.90000000     56.58000000     77.21000000
C28     55.90000000     56.92000000     78.32000000
C29     55.37000000     56.51000000     79.69000000
C30     55.30000000     54.99000000     79.83000000
C31     54.83000000     54.59000000     81.23000000
C32     54.76000000     53.07000000     81.36000000
C33     56.14000000     52.43000000     81.28000000
C34     60.41000000     59.44000000     63.81000000
OS35     61.54000000     59.80000000     64.63000000
C36     62.74000000     59.21000000     64.36000000
O37     62.87000000     58.26000000     63.58000000
C38     63.89000000     60.00000000     64.96000000
C39     64.30000000     59.57000000     66.36000000
C40     65.13000000     58.28000000     66.36000000
C41     65.68000000     58.05000000     67.76000000
C42     66.38000000     56.70000000     67.93000000
C43     66.98000000     56.65000000     69.34000000
C44     65.86000000     56.76000000     70.38000000
C45     66.40000000     57.21000000     71.74000000
C46     65.25000000     57.41000000     72.72000000
C47     65.74000000     58.13000000     73.99000000
C48     66.11000000     59.58000000     73.68000000
C49     66.54000000     60.32000000     74.95000000
C50     67.85000000     59.74000000     75.49000000
C51     68.29000000     60.48000000     76.76000000
C52     68.68000000     61.92000000     76.43000000
 C1     46.09000000     38.59000000     62.39000000
 C2     47.74000000     39.69000000     61.04000000
 C3     48.09000000     37.47000000     61.85000000
 N4     47.53000000     38.79000000     62.18000000
 C5     48.22000000     39.27000000     63.39000000
 C6     47.79000000     40.60000000     64.06000000
OS7     46.49000000     40.53000000     64.65000000
 P8     46.55000000     40.31000000     66.22000000
OM9     47.72000000     41.04000000     66.71000000
OM10     45.18000000     40.53000000     66.66000000
OS11     46.90000000     38.77000000     66.16000000
C12     45.79000000     37.88000000     66.14000000
C13     46.18000000     36.54000000     65.49000000
OS14     45.04000000     35.72000000     65.14000000
C15     45.00000000     35.21000000     63.88000000
O16     45.72000000     35.62000000     62.96000000
C17     43.74000000     34.39000000     63.65000000
C18     43.16000000     34.75000000     62.29000000
C19     41.80000000     34.08000000     62.04000000
C20     41.94000000     32.57000000     61.91000000
C21     40.66000000     32.00000000     61.30000000
C22     40.77000000     30.50000000     61.01000000
C23     39.58000000     30.03000000     60.18000000
C24     39.59000000     28.55000000     59.91000000
C25     39.08000000     27.63000000     60.74000000
C26     39.03000000     26.15000000     60.54000000
C27     37.61000000     25.64000000     60.80000000
C28     37.18000000     26.04000000     62.21000000
C29     35.74000000     25.64000000     62.52000000
C30     35.59000000     24.13000000     62.66000000
C31     34.16000000     23.76000000     63.05000000
C32     34.03000000     22.25000000     63.27000000
C33     34.87000000     21.80000000     64.47000000
C34     47.27000000     35.95000000     66.40000000
OS35     47.97000000     34.76000000     65.97000000
C36     48.88000000     34.85000000     64.96000000
O37     49.12000000     35.86000000     64.29000000
C38     49.56000000     33.51000000     64.74000000
C39     48.73000000     32.35000000     65.31000000
C40     47.52000000     32.03000000     64.44000000
C41     46.59000000     31.09000000     65.21000000
C42     45.29000000     30.81000000     64.44000000
C43     44.30000000     30.14000000     65.39000000
C44     43.89000000     31.12000000     66.49000000
C45     43.15000000     30.40000000     67.62000000
C46     42.77000000     31.39000000     68.73000000
C47     42.25000000     30.64000000     69.96000000
C48     43.39000000     29.87000000     70.63000000
C49     42.90000000     29.08000000     71.84000000
C50     41.99000000     27.93000000     71.40000000
C51     41.52000000     27.11000000     72.61000000
C52     42.70000000     26.38000000     73.26000000
 C1     68.16000000     61.61000000     49.50000000
 C2     67.88000000     59.26000000     49.21000000
 C3     67.34000000     60.24000000     51.27000000
 N4     68.29000000     60.30000000     50.15000000
 C5     69.69000000     60.06000000     50.60000000
 C6     70.40000000     60.97000000     51.63000000
OS7     69.79000000     60.99000000     52.92000000
 P8     69.34000000     62.42000000     53.39000000
OM9     68.65000000     62.88000000     52.19000000
OM10     68.62000000     62.14000000     54.64000000
OS11     70.72000000     63.11000000     53.59000000
C12     71.47000000     62.57000000     54.67000000
C13     72.97000000     62.82000000     54.49000000
OS14     73.82000000     61.79000000     55.05000000
C15     74.03000000     60.69000000     54.27000000
O16     73.46000000     60.49000000     53.20000000
C17     75.00000000     59.74000000     54.94000000
C18     74.48000000     58.31000000     54.96000000
C19     75.49000000     57.41000000     55.67000000
C20     76.82000000     57.49000000     54.92000000
C21     77.91000000     56.64000000     55.57000000
C22     79.20000000     56.75000000     54.75000000
C23     80.30000000     55.85000000     55.29000000
C24     81.44000000     55.77000000     54.32000000
C25     81.51000000     56.40000000     53.14000000
C26     82.61000000     56.34000000     52.11000000
C27     83.81000000     55.48000000     52.54000000
C28     84.85000000     56.26000000     53.34000000
C29     85.85000000     55.31000000     53.98000000
C30     86.59000000     54.47000000     52.93000000
C31     87.52000000     53.46000000     53.60000000
C32     88.21000000     52.58000000     52.56000000
C33     89.19000000     53.40000000     51.71000000
C34     73.26000000     64.26000000     54.93000000
OS35     72.75000000     65.25000000     54.02000000
C36     73.37000000     66.45000000     53.97000000
O37     74.14000000     66.88000000     54.83000000
C38     72.92000000     67.23000000     52.74000000
C39     73.90000000     66.97000000     51.58000000
C40     73.73000000     65.55000000     51.03000000
C41     75.03000000     65.05000000     50.40000000
C42     74.90000000     63.59000000     49.96000000
C43     76.27000000     63.06000000     49.52000000
C44     77.15000000     62.84000000     50.75000000
C45     78.62000000     62.75000000     50.35000000
C46     79.50000000     62.45000000     51.57000000
C47     80.96000000     62.79000000     51.26000000
C48     81.10000000     64.31000000     51.15000000
C49     82.54000000     64.73000000     50.82000000
C50     82.92000000     64.35000000     49.39000000
C51     84.33000000     64.83000000     49.07000000
C52     84.39000000     66.36000000     49.07000000
 C1     34.37000000     54.77000000     56.60000000
 C2     34.16000000     54.16000000     58.83000000
 C3     36.34000000     54.52000000     57.98000000
 N4     34.95000000     54.98000000     57.92000000
 C5     34.81000000     56.38000000     58.38000000
 C6     35.62000000     57.49000000     57.67000000
OS7     35.22000000     57.78000000     56.34000000
 P8     35.59000000     59.26000000     55.94000000
OM9     37.05000000     59.25000000     56.14000000
OM10     35.10000000     59.29000000     54.55000000
OS11     34.72000000     60.07000000     56.96000000
C12     33.41000000     60.39000000     56.48000000
C13     32.29000000     60.63000000     57.52000000
OS14     30.96000000     60.39000000     56.98000000
C15     30.51000000     59.11000000     56.90000000
O16     31.27000000     58.17000000     56.65000000
C17     29.01000000     59.10000000     56.64000000
C18     28.58000000     57.66000000     56.38000000
C19     27.10000000     57.47000000     56.06000000
C20     26.22000000     57.59000000     57.30000000
C21     24.85000000     57.00000000     56.99000000
C22     23.96000000     56.91000000     58.22000000
C23     22.64000000     56.24000000     57.85000000
C24     21.72000000     56.10000000     59.02000000
C25     20.64000000     56.85000000     59.27000000
C26     19.72000000     56.68000000     60.44000000
C27     18.59000000     55.71000000     60.11000000
C28     17.63000000     56.29000000     59.07000000
C29     16.69000000     55.21000000     58.55000000
C30     15.86000000     54.59000000     59.68000000
C31     15.02000000     53.43000000     59.15000000
C32     14.23000000     52.77000000     60.28000000
C33     13.16000000     53.72000000     60.82000000
C34     32.37000000     62.05000000     58.10000000
OS35     33.06000000     62.26000000     59.34000000
C36     32.54000000     63.25000000     60.13000000
O37     31.74000000     64.09000000     59.74000000
C38     33.35000000     63.39000000     61.41000000
C39     32.53000000     63.67000000     62.67000000
C40     31.82000000     62.41000000     63.17000000
C41     31.38000000     62.59000000     64.62000000
C42     30.65000000     61.36000000     65.16000000
C43     29.19000000     61.31000000     64.72000000
C44     28.54000000     60.07000000     65.34000000
C45     27.03000000     59.98000000     65.16000000
C46     26.61000000     59.70000000     63.71000000
C47     25.20000000     59.09000000     63.70000000
C48     24.64000000     58.93000000     62.28000000
C49     24.17000000     60.28000000     61.74000000
C50     23.37000000     60.12000000     60.45000000
C51     22.75000000     61.45000000     60.03000000
C52     21.70000000     61.91000000     61.03000000
 C1     69.87000000     53.07000000     53.74000000
 C2     70.30000000     51.61000000     51.96000000
 C3     68.03000000     52.23000000     52.51000000
 N4     69.42000000     52.69000000     52.40000000
 C5     69.57000000     53.78000000     51.41000000
 C6     69.05000000     55.21000000     51.68000000
OS7     69.68000000     55.88000000     52.77000000
 P8     70.99000000     56.68000000     52.38000000
OM9     70.66000000     57.24000000     51.05000000
OM10     71.24000000     57.46000000     53.58000000
OS11     71.99000000     55.47000000     52.28000000
C12     72.73000000     55.16000000     53.46000000
C13     73.76000000     54.06000000     53.18000000
OS14     74.15000000     53.30000000     54.35000000
C15     73.70000000     52.02000000     54.47000000
O16     72.68000000     51.61000000     53.90000000
C17     74.42000000     51.21000000     55.54000000
C18     74.72000000     51.96000000     56.84000000
C19     76.10000000     52.63000000     56.82000000
C20     76.53000000     52.94000000     58.26000000
C21     77.94000000     53.51000000     58.32000000
C22     78.44000000     53.45000000     59.77000000
C23     77.63000000     54.36000000     60.68000000
C24     77.92000000     54.08000000     62.13000000
C25     78.65000000     53.05000000     62.58000000
C26     78.96000000     52.73000000     64.01000000
C27     80.45000000     52.42000000     64.20000000
C28     80.84000000     51.19000000     63.39000000
C29     82.33000000     50.89000000     63.52000000
C30     82.67000000     50.40000000     64.93000000
C31     84.17000000     50.09000000     65.05000000
C32     84.50000000     49.55000000     66.44000000
C33     83.88000000     48.17000000     66.65000000
C34     74.90000000     54.79000000     52.45000000
OS35     75.81000000     53.98000000     51.68000000
C36     77.09000000     54.44000000     51.66000000
O37     77.48000000     55.40000000     52.32000000
C38     77.99000000     53.57000000     50.81000000
C39     79.35000000     53.41000000     51.50000000
C40     80.06000000     52.15000000     51.01000000
C41     81.42000000     52.02000000     51.70000000
C42     81.29000000     51.92000000     53.21000000
C43     82.68000000     51.88000000     53.84000000
C44     82.63000000     52.12000000     55.35000000
C45     84.06000000     52.35000000     55.85000000
C46     84.12000000     52.76000000     57.32000000
C47     85.57000000     53.04000000     57.70000000
C48     86.41000000     51.78000000     57.53000000
C49     87.90000000     52.05000000     57.73000000
C50     88.71000000     50.77000000     57.50000000
C51     90.21000000     51.05000000     57.58000000
C52     90.66000000     51.92000000     56.41000000
 C1     57.52000000     38.82000000     44.94000000
 C2     58.30000000     37.04000000     43.57000000
 C3     58.81000000     37.09000000     45.90000000
 N4     58.64000000     37.92000000     44.70000000
 C5     59.89000000     38.63000000     44.34000000
 C6     60.34000000     39.89000000     45.14000000
OS7     60.27000000     39.75000000     46.56000000
 P8     61.63000000     39.36000000     47.27000000
OM9     62.54000000     40.48000000     46.99000000
OM10     61.22000000     39.05000000     48.64000000
OS11     62.04000000     38.09000000     46.44000000
C12     62.30000000     36.89000000     47.16000000
C13     62.17000000     35.66000000     46.23000000
OS14     62.18000000     34.38000000     46.91000000
C15     61.02000000     33.87000000     47.39000000
O16     60.05000000     34.58000000     47.74000000
C17     61.21000000     32.40000000     47.72000000
C18     60.27000000     31.91000000     48.82000000
C19     60.45000000     30.41000000     49.05000000
C20     59.81000000     29.59000000     47.93000000
C21     60.21000000     28.13000000     48.07000000
C22     59.33000000     27.20000000     47.23000000
C23     59.82000000     25.76000000     47.38000000
C24     58.80000000     24.74000000     46.96000000
C25     58.15000000     23.95000000     47.82000000
C26     57.11000000     22.92000000     47.51000000
C27     57.42000000     21.56000000     48.15000000
C28     58.61000000     20.88000000     47.48000000
C29     58.93000000     19.55000000     48.18000000
C30     57.75000000     18.58000000     48.09000000
C31     58.10000000     17.25000000     48.76000000
C32     56.88000000     16.33000000     48.82000000
C33     56.41000000     15.92000000     47.42000000
C34     63.25000000     35.85000000     45.15000000
OS35     63.17000000     35.10000000     43.91000000
C36     62.23000000     35.43000000     42.98000000
O37     61.15000000     35.95000000     43.24000000
C38     62.59000000     34.84000000     41.62000000
C39     62.85000000     33.34000000     41.66000000
C40     61.55000000     32.54000000     41.71000000
C41     61.84000000     31.05000000     41.49000000
C42     60.55000000     30.24000000     41.37000000
C43     60.87000000     28.79000000     41.01000000
C44     61.57000000     28.07000000     42.16000000
C45     62.05000000     26.69000000     41.71000000
C46     62.78000000     25.95000000     42.84000000
C47     63.43000000     24.68000000     42.30000000
C48     64.57000000     25.03000000     41.35000000
C49     65.21000000     23.78000000     40.74000000
C50     64.25000000     23.08000000     39.79000000
C51     64.91000000     21.86000000     39.14000000
C52     66.04000000     22.28000000     38.20000000
 C1     42.43000000     37.01000000     57.97000000
 C2     44.43000000     37.42000000     59.13000000
 C3     44.42000000     37.54000000     56.76000000
 N4     43.64000000     37.84000000     57.96000000
 C5     43.30000000     39.28000000     58.05000000
 C6     42.40000000     39.93000000     56.97000000
OS7     41.03000000     39.53000000     56.93000000
 P8     40.03000000     40.56000000     57.56000000
OM9     40.57000000     41.88000000     57.20000000
OM10     38.67000000     40.19000000     57.14000000
OS11     40.33000000     40.30000000     59.07000000
C12     39.51000000     39.26000000     59.62000000
C13     40.06000000     38.58000000     60.89000000
OS14     41.47000000     38.25000000     60.76000000
C15     42.30000000     38.80000000     61.70000000
O16     43.35000000     39.35000000     61.34000000
C17     41.67000000     38.88000000     63.07000000
C18     42.70000000     38.71000000     64.19000000
C19     41.99000000     38.76000000     65.54000000
C20     41.10000000     37.52000000     65.71000000
C21     41.87000000     36.36000000     66.34000000
C22     42.12000000     36.65000000     67.82000000
C23     40.79000000     36.57000000     68.58000000
C24     40.90000000     37.04000000     69.99000000
C25     40.04000000     37.87000000     70.60000000
C26     40.13000000     38.35000000     72.01000000
C27     39.72000000     37.24000000     72.99000000
C28     38.28000000     36.80000000     72.75000000
C29     37.95000000     35.56000000     73.59000000
C30     37.95000000     35.89000000     75.09000000
C31     37.68000000     34.63000000     75.91000000
C32     37.66000000     34.94000000     77.40000000
C33     36.46000000     35.81000000     77.77000000
C34     39.16000000     37.36000000     61.15000000
OS35     37.98000000     37.58000000     61.94000000
C36     36.82000000     37.07000000     61.45000000
O37     36.59000000     36.94000000     60.24000000
C38     35.76000000     37.03000000     62.55000000
C39     34.48000000     36.34000000     62.09000000
C40     33.40000000     36.48000000     63.18000000
C41     32.02000000     36.12000000     62.62000000
C42     30.92000000     36.52000000     63.61000000
C43     29.55000000     36.50000000     62.93000000
C44     29.11000000     35.08000000     62.57000000
C45     28.78000000     34.27000000     63.82000000
C46     28.51000000     32.81000000     63.44000000
C47     28.38000000     31.92000000     64.67000000
C48     28.35000000     30.45000000     64.26000000
C49     28.34000000     29.54000000     65.49000000
C50     27.02000000     29.69000000     66.25000000
C51     27.02000000     28.77000000     67.48000000
C52     27.03000000     27.30000000     67.06000000
 C1     43.18000000     63.84000000     40.90000000
 C2     45.24000000     62.82000000     41.42000000
 C3     43.52000000     63.10000000     43.12000000
 N4     43.80000000     62.79000000     41.72000000
 C5     43.19000000     61.50000000     41.36000000
 C6     43.60000000     60.21000000     42.11000000
OS7     44.71000000     59.47000000     41.60000000
 P8     44.66000000     57.93000000     41.92000000
OM9     46.07000000     57.53000000     41.91000000
OM10     43.89000000     57.70000000     43.16000000
OS11     43.93000000     57.29000000     40.69000000
C12     42.50000000     57.17000000     40.79000000
C13     41.78000000     56.58000000     39.56000000
OS14     41.67000000     57.46000000     38.41000000
C15     41.76000000     56.83000000     37.20000000
O16     42.21000000     55.69000000     37.13000000
C17     41.38000000     57.78000000     36.06000000
C18     42.03000000     57.54000000     34.69000000
C19     41.36000000     56.38000000     33.95000000
C20     41.75000000     56.26000000     32.47000000
C21     41.25000000     54.92000000     31.92000000
C22     41.66000000     54.69000000     30.46000000
C23     41.40000000     53.24000000     30.03000000
C24     41.68000000     53.03000000     28.57000000
C25     41.37000000     52.00000000     27.77000000
C26     40.65000000     50.71000000     28.05000000
C27     39.13000000     50.86000000     27.97000000
C28     38.40000000     49.51000000     27.92000000
C29     36.90000000     49.75000000     28.15000000
C30     36.01000000     48.64000000     27.60000000
C31     34.54000000     48.99000000     27.86000000
C32     33.58000000     48.10000000     27.07000000
C33     33.66000000     46.63000000     27.48000000
C34     40.39000000     56.16000000     40.07000000
OS35     40.36000000     54.97000000     40.88000000
C36     39.17000000     54.80000000     41.54000000
O37     38.71000000     55.70000000     42.24000000
C38     39.02000000     53.33000000     41.90000000
C39     37.74000000     53.12000000     42.71000000
C40     37.64000000     51.70000000     43.28000000
C41     37.36000000     50.64000000     42.22000000
C42     37.40000000     49.24000000     42.84000000
C43     36.86000000     48.18000000     41.88000000
C44     35.36000000     48.37000000     41.72000000
C45     34.70000000     47.32000000     40.82000000
C46     33.22000000     47.68000000     40.68000000
C47     32.42000000     46.73000000     39.79000000
C48     30.97000000     47.22000000     39.80000000
C49     30.00000000     46.35000000     39.01000000
C50     28.57000000     46.83000000     39.29000000
C51     27.51000000     45.96000000     38.61000000
C52     26.11000000     46.45000000     38.97000000
 C1     43.85000000     51.35000000     38.83000000
 C2     43.62000000     52.92000000     40.61000000
 C3     44.12000000     53.71000000     38.45000000
 N4     43.36000000     52.69000000     39.19000000
 C5     41.89000000     52.80000000     38.98000000
 C6     41.25000000     52.74000000     37.57000000
OS7     39.90000000     53.17000000     37.53000000
 P8     39.34000000     53.32000000     36.05000000
OM9     40.45000000     52.99000000     35.13000000
OM10     38.13000000     52.50000000     36.04000000
OS11     38.99000000     54.86000000     35.92000000
C12     37.61000000     55.17000000     35.72000000
C13     37.31000000     56.63000000     35.31000000
OS14     35.95000000     57.09000000     35.56000000
C15     35.84000000     58.45000000     35.71000000
O16     36.75000000     59.08000000     36.23000000
C17     34.42000000     58.97000000     35.51000000
C18     34.40000000     60.48000000     35.21000000
C19     34.30000000     61.34000000     36.47000000
C20     34.62000000     62.79000000     36.11000000
C21     34.34000000     63.80000000     37.23000000
C22     32.83000000     64.06000000     37.36000000
C23     32.55000000     65.29000000     38.21000000
C24     31.07000000     65.54000000     38.33000000
C25     30.40000000     65.81000000     39.45000000
C26     28.92000000     66.02000000     39.55000000
C27     28.52000000     67.50000000     39.64000000
C28     27.00000000     67.62000000     39.79000000
C29     26.56000000     69.08000000     39.88000000
C30     26.71000000     69.79000000     38.54000000
C31     25.71000000     69.27000000     37.51000000
C32     25.91000000     69.95000000     36.15000000
C33     27.26000000     69.57000000     35.55000000
C34     37.71000000     56.76000000     33.83000000
OS35     38.68000000     57.79000000     33.58000000
C36     38.25000000     58.99000000     33.08000000
O37     37.19000000     59.14000000     32.48000000
C38     39.43000000     59.96000000     33.03000000
C39     39.03000000     61.32000000     32.46000000
C40     38.38000000     62.22000000     33.51000000
C41     37.78000000     63.43000000     32.80000000
C42     37.17000000     64.45000000     33.77000000
C43     36.18000000     65.32000000     32.99000000