#B3LYP/6-31+G(d) OPT FREQ

6100, Energy = -96714.68217769 au

0 1
 C1     63.57000000     50.60000000     59.27000000
 C2     64.55000000     48.73000000     60.29000000
 C3     64.33000000     48.82000000     57.89000000
 N4     64.62000000     49.59000000     59.10000000
 C5     65.97000000     50.19000000     59.06000000
 C6     66.34000000     51.25000000     57.99000000
OS7     65.57000000     52.44000000     57.98000000
 P8     65.80000000     53.58000000     59.09000000
OM9     66.02000000     54.72000000     58.21000000
OM10     64.52000000     53.40000000     59.79000000
OS11     67.01000000     53.00000000     59.93000000
C12     66.71000000     53.06000000     61.32000000
C13     67.64000000     52.20000000     62.19000000
OS14     66.93000000     51.44000000     63.21000000
C15     66.89000000     50.10000000     63.02000000
O16     67.07000000     49.58000000     61.91000000
C17     66.23000000     49.40000000     64.20000000
C18     66.24000000     47.88000000     64.00000000
C19     65.86000000     47.15000000     65.29000000
C20     66.05000000     45.64000000     65.15000000
C21     65.96000000     44.94000000     66.51000000
C22     66.40000000     43.48000000     66.38000000
C23     66.61000000     42.83000000     67.75000000
C24     67.36000000     41.53000000     67.61000000
C25     68.70000000     41.44000000     67.61000000
C26     69.55000000     40.21000000     67.46000000
C27     70.48000000     40.02000000     68.66000000
C28     71.38000000     41.25000000     68.83000000
C29     72.36000000     41.08000000     70.00000000
C30     73.49000000     40.12000000     69.64000000
C31     74.52000000     40.06000000     70.77000000
C32     75.72000000     39.19000000     70.39000000
C33     76.56000000     39.85000000     69.30000000
C34     68.78000000     53.12000000     62.64000000
OS35     70.00000000     52.40000000     62.92000000
C36     71.11000000     53.18000000     62.84000000
O37     71.14000000     54.23000000     62.21000000
C38     72.34000000     52.38000000     63.23000000
C39     73.47000000     52.66000000     62.25000000
C40     74.72000000     51.84000000     62.55000000
C41     75.45000000     52.28000000     63.82000000
C42     76.76000000     51.49000000     63.91000000
C43     77.57000000     51.83000000     65.16000000
C44     76.86000000     51.33000000     66.43000000
C45     77.86000000     51.26000000     67.58000000
C46     77.22000000     50.72000000     68.86000000
C47     78.31000000     50.35000000     69.86000000
C48     79.18000000     51.56000000     70.21000000
C49     80.32000000     51.17000000     71.15000000
C50     81.20000000     52.38000000     71.47000000
C51     82.33000000     51.98000000     72.41000000
C52     81.79000000     51.56000000     73.78000000
 C1     41.91000000     39.87000000     39.52000000
 C2     41.26000000     37.85000000     40.63000000
 C3     39.93000000     38.76000000     38.91000000
 N4     40.78000000     39.11000000     40.05000000
 C5     39.93000000     39.84000000     41.01000000
 C6     40.63000000     40.55000000     42.20000000
OS7     39.87000000     40.62000000     43.42000000
 P8     40.39000000     39.57000000     44.49000000
OM9     41.80000000     40.01000000     44.50000000
OM10     39.52000000     39.91000000     45.63000000
OS11     39.93000000     38.33000000     43.62000000
C12     39.05000000     37.41000000     44.26000000
C13     37.97000000     36.81000000     43.33000000
OS14     36.86000000     36.17000000     44.01000000
C15     35.92000000     36.93000000     44.64000000
O16     36.17000000     38.03000000     45.12000000
C17     34.60000000     36.19000000     44.80000000
C18     33.45000000     37.17000000     44.54000000
C19     32.22000000     36.50000000     43.93000000
C20     31.23000000     37.58000000     43.44000000
C21     29.96000000     36.98000000     42.84000000
C22     28.98000000     38.08000000     42.45000000
C23     27.71000000     37.55000000     41.78000000
C24     26.92000000     38.69000000     41.20000000
C25     26.70000000     38.90000000     39.89000000
C26     25.97000000     40.06000000     39.29000000
C27     24.86000000     39.69000000     38.31000000
C28     23.67000000     39.06000000     39.03000000
C29     22.47000000     38.89000000     38.09000000
C30     22.78000000     37.91000000     36.95000000
C31     21.57000000     37.78000000     36.03000000
C32     21.86000000     36.84000000     34.85000000
C33     22.05000000     35.40000000     35.34000000
C34     38.68000000     35.91000000     42.29000000
OS35     38.33000000     36.26000000     40.92000000
C36     38.70000000     35.37000000     39.95000000
O37     39.80000000     34.83000000     39.98000000
C38     38.09000000     35.82000000     38.63000000
C39     37.77000000     34.72000000     37.62000000
C40     36.35000000     34.22000000     37.84000000
C41     35.82000000     33.44000000     36.64000000
C42     34.35000000     33.07000000     36.87000000
C43     33.75000000     32.32000000     35.68000000
C44     32.26000000     32.08000000     35.92000000
C45     31.60000000     31.38000000     34.74000000
C46     30.10000000     31.21000000     35.02000000
C47     29.39000000     30.53000000     33.85000000
C48     29.85000000     29.09000000     33.67000000
C49     29.09000000     28.42000000     32.52000000
C50     29.54000000     26.97000000     32.34000000
C51     30.99000000     26.90000000     31.85000000
C52     31.43000000     25.45000000     31.67000000
 C1     59.15000000     60.14000000     47.90000000
 C2     57.33000000     61.13000000     46.75000000
 C3     57.02000000     60.39000000     48.98000000
 N4     57.97000000     61.00000000     48.05000000
 C5     58.40000000     62.35000000     48.52000000
 C6     58.85000000     62.48000000     49.99000000
OS7     59.82000000     61.52000000     50.43000000
 P8     61.23000000     62.13000000     50.81000000
OM9     60.73000000     63.15000000     51.74000000
OM10     61.81000000     60.86000000     51.33000000
OS11     61.58000000     62.51000000     49.32000000
C12     62.18000000     63.77000000     48.93000000
C13     61.16000000     64.87000000     48.57000000
OS14     61.43000000     65.75000000     47.44000000
C15     60.39000000     66.04000000     46.60000000
O16     59.44000000     65.28000000     46.40000000
C17     60.67000000     67.34000000     45.85000000
C18     59.72000000     67.60000000     44.68000000
C19     60.32000000     67.14000000     43.35000000
C20     61.54000000     68.00000000     43.00000000
C21     62.16000000     67.64000000     41.65000000
C22     61.41000000     68.33000000     40.51000000
C23     62.06000000     68.03000000     39.15000000
C24     61.43000000     68.87000000     38.07000000
C25     60.44000000     69.75000000     38.27000000
C26     59.79000000     70.63000000     37.24000000
C27     60.19000000     72.09000000     37.46000000
C28     59.72000000     72.56000000     38.84000000
C29     60.26000000     73.96000000     39.17000000
C30     59.63000000     75.04000000     38.30000000
C31     60.23000000     76.41000000     38.63000000
C32     59.55000000     77.52000000     37.82000000
C33     58.10000000     77.71000000     38.29000000
C34     60.88000000     65.66000000     49.86000000
OS35     59.46000000     65.75000000     50.12000000
C36     58.94000000     67.01000000     50.08000000
O37     57.72000000     67.19000000     50.18000000
C38     60.03000000     68.07000000     50.09000000
C39     59.52000000     69.51000000     49.96000000
C40     59.17000000     69.84000000     48.51000000
C41     59.30000000     71.35000000     48.29000000
C42     59.06000000     71.74000000     46.83000000
C43     59.62000000     73.14000000     46.59000000
C44     61.15000000     73.07000000     46.62000000
C45     61.79000000     74.46000000     46.65000000
C46     63.32000000     74.32000000     46.63000000
C47     64.01000000     75.66000000     46.87000000
C48     63.82000000     76.10000000     48.32000000
C49     64.62000000     77.38000000     48.62000000
C50     64.05000000     78.58000000     47.86000000
C51     64.86000000     79.84000000     48.15000000
C52     64.72000000     80.25000000     49.62000000
 C1     28.76000000     58.02000000     56.51000000
 C2     27.80000000     59.26000000     54.71000000
 C3     30.10000000     58.52000000     54.63000000
 N4     28.74000000     58.18000000     55.05000000
 C5     28.34000000     56.89000000     54.44000000
 C6     28.33000000     56.78000000     52.90000000
OS7     28.86000000     55.54000000     52.43000000
 P8     27.71000000     54.52000000     52.00000000
OM9     27.03000000     55.26000000     50.95000000
OM10     28.52000000     53.32000000     51.69000000
OS11     26.88000000     54.43000000     53.31000000
C12     25.49000000     54.14000000     53.13000000
C13     24.46000000     55.22000000     53.51000000
OS14     24.45000000     55.55000000     54.92000000
C15     24.60000000     56.86000000     55.25000000
O16     25.30000000     57.62000000     54.58000000
C17     24.25000000     57.12000000     56.70000000
C18     25.52000000     57.08000000     57.55000000
C19     25.38000000     57.93000000     58.82000000
C20     26.66000000     57.86000000     59.64000000
C21     26.55000000     58.75000000     60.88000000
C22     27.86000000     58.74000000     61.66000000
C23     27.78000000     59.64000000     62.90000000
C24     27.70000000     61.10000000     62.59000000
C25     26.61000000     61.87000000     62.70000000
C26     26.52000000     63.34000000     62.40000000
C27     25.42000000     64.00000000     63.23000000
C28     24.04000000     63.45000000     62.82000000
C29     22.94000000     64.02000000     63.72000000
C30     22.84000000     65.54000000     63.57000000
C31     21.72000000     66.11000000     64.44000000
C32     21.68000000     67.63000000     64.36000000
C33     21.31000000     68.10000000     62.95000000
C34     23.08000000     54.68000000     53.07000000
OS35     22.51000000     55.07000000     51.79000000
C36     22.78000000     54.35000000     50.67000000
O37     23.86000000     53.79000000     50.46000000
C38     21.73000000     54.58000000     49.59000000
C39     20.83000000     55.79000000     49.87000000
C40     21.43000000     57.08000000     49.31000000
C41     20.65000000     58.30000000     49.80000000
C42     21.23000000     59.60000000     49.24000000
C43     20.63000000     60.81000000     49.95000000
C44     19.13000000     60.92000000     49.66000000
C45     18.49000000     62.00000000     50.52000000
C46     18.46000000     61.57000000     51.99000000
C47     17.78000000     62.63000000     52.85000000
C48     16.30000000     62.76000000     52.49000000
C49     15.62000000     63.81000000     53.37000000
C50     14.14000000     63.96000000     53.00000000
C51     13.46000000     65.02000000     53.87000000
C52     11.99000000     65.17000000     53.50000000
 C1     37.38000000     39.15000000     47.88000000
 C2     38.02000000     36.92000000     47.84000000
 C3     38.85000000     38.37000000     49.59000000
 N4     37.71000000     38.02000000     48.74000000
 C5     36.58000000     37.50000000     49.53000000
 C6     36.06000000     38.30000000     50.75000000
OS7     35.67000000     39.65000000     50.52000000
 P8     34.30000000     39.93000000     49.77000000
OM9     34.22000000     41.38000000     50.03000000
OM10     34.50000000     39.49000000     48.39000000
OS11     33.31000000     39.03000000     50.57000000
C12     32.48000000     38.18000000     49.75000000
C13     32.95000000     36.72000000     49.74000000
OS14     32.49000000     35.89000000     48.65000000
C15     33.47000000     35.09000000     48.13000000
O16     34.66000000     35.39000000     48.26000000
C17     32.94000000     33.92000000     47.32000000
C18     31.48000000     34.05000000     46.91000000
C19     31.05000000     32.75000000     46.22000000
C20     29.63000000     32.82000000     45.66000000
C21     29.55000000     33.68000000     44.40000000
C22     30.12000000     32.97000000     43.17000000
C23     29.17000000     31.87000000     42.68000000
C24     29.70000000     31.19000000     41.45000000
C25     30.79000000     31.54000000     40.75000000
C26     31.31000000     30.81000000     39.54000000
C27     30.47000000     29.57000000     39.24000000
C28     31.09000000     28.73000000     38.12000000
C29     30.25000000     27.48000000     37.88000000
C30     30.88000000     26.59000000     36.80000000
C31     30.04000000     25.33000000     36.59000000
C32     30.68000000     24.42000000     35.54000000
C33     32.02000000     23.87000000     36.03000000
C34     32.67000000     36.19000000     51.16000000
OS35     33.41000000     35.00000000     51.52000000
C36     32.67000000     33.85000000     51.47000000
O37     31.45000000     33.85000000     51.35000000
C38     33.55000000     32.63000000     51.73000000
C39     32.74000000     31.37000000     52.03000000
C40     32.07000000     30.80000000     50.78000000
C41     33.09000000     30.23000000     49.79000000
C42     32.48000000     29.71000000     48.48000000
C43     31.81000000     28.33000000     48.59000000
C44     30.31000000     28.42000000     48.87000000
C45     29.66000000     27.04000000     48.91000000
C46     28.18000000     27.16000000     49.26000000
C47     27.50000000     25.79000000     49.28000000
C48     26.02000000     25.91000000     49.66000000
C49     25.36000000     24.53000000     49.71000000
C50     25.92000000     23.72000000     50.88000000
C51     25.28000000     22.33000000     50.94000000
C52     23.79000000     22.43000000     51.30000000
 C1     37.02000000     41.79000000     52.46000000
 C2     36.30000000     42.66000000     54.56000000
 C3     36.52000000     40.30000000     54.23000000
 N4     36.13000000     41.56000000     53.59000000
 C5     34.73000000     41.52000000     53.10000000
 C6     33.55000000     41.13000000     54.01000000
OS7     33.24000000     42.07000000     55.04000000
 P8     33.28000000     41.39000000     56.47000000
OM9     34.69000000     41.03000000     56.54000000
OM10     32.73000000     42.37000000     57.39000000
OS11     32.37000000     40.12000000     56.30000000
C12     31.03000000     40.38000000     56.70000000
C13     29.96000000     39.97000000     55.67000000
OS14     30.16000000     40.63000000     54.39000000
C15     30.14000000     39.88000000     53.25000000
O16     30.85000000     40.18000000     52.28000000
C17     29.40000000     38.56000000     53.39000000
C18     29.22000000     37.89000000     52.03000000
C19     28.41000000     36.61000000     52.17000000
C20     28.47000000     35.79000000     50.88000000
C21     27.66000000     34.49000000     51.03000000
C22     27.94000000     33.54000000     49.86000000
C23     27.12000000     32.26000000     50.01000000
C24     27.45000000     31.26000000     48.94000000
C25     26.84000000     31.14000000     47.75000000
C26     27.20000000     30.12000000     46.71000000
C27     25.98000000     29.50000000     46.03000000
C28     25.07000000     28.82000000     47.06000000
C29     23.94000000     28.06000000     46.36000000
C30     24.51000000     26.87000000     45.59000000
C31     23.41000000     26.05000000     44.92000000
C32     24.02000000     24.87000000     44.16000000
C33     24.70000000     23.90000000     45.12000000
C34     28.62000000     40.28000000     56.38000000
OS35     28.41000000     39.53000000     57.59000000
C36     27.30000000     39.93000000     58.28000000
O37     26.55000000     40.81000000     57.87000000
C38     27.07000000     39.13000000     59.55000000
C39     27.03000000     37.61000000     59.33000000
C40     25.71000000     37.05000000     58.80000000
C41     25.54000000     37.09000000     57.27000000
C42     26.56000000     36.22000000     56.54000000
C43     26.32000000     34.73000000     56.81000000
C44     24.97000000     34.28000000     56.25000000
C45     24.70000000     32.82000000     56.61000000
C46     23.28000000     32.41000000     56.21000000
C47     23.03000000     30.95000000     56.58000000
C48     23.08000000     30.75000000     58.10000000
C49     22.94000000     29.26000000     58.44000000
C50     24.17000000     28.48000000     57.97000000
C51     24.00000000     26.99000000     58.25000000
C52     23.91000000     26.72000000     59.75000000
 C1     33.57000000     57.40000000     49.65000000
 C2     32.18000000     56.47000000     51.36000000
 C3     34.54000000     56.74000000     51.71000000
 N4     33.34000000     57.32000000     51.10000000
 C5     33.02000000     58.63000000     51.70000000
 C6     33.89000000     59.89000000     51.45000000
OS7     35.28000000     59.78000000     51.76000000
 P8     35.94000000     61.18000000     52.06000000
OM9     37.36000000     60.84000000     51.94000000
OM10     35.34000000     62.11000000     51.09000000
OS11     35.56000000     61.39000000     53.57000000
C12     34.69000000     62.50000000     53.78000000
C13     33.61000000     62.19000000     54.84000000
OS14     32.34000000     62.80000000     54.53000000
C15     31.46000000     61.95000000     53.93000000
O16     31.74000000     60.77000000     53.72000000
C17     30.09000000     62.58000000     53.73000000
C18     29.36000000     61.93000000     52.55000000
C19     27.99000000     62.57000000     52.35000000
C20     27.35000000     62.05000000     51.07000000
C21     26.13000000     62.88000000     50.67000000
C22     25.68000000     62.49000000     49.26000000
C23     24.50000000     63.34000000     48.78000000
C24     24.18000000     63.04000000     47.35000000
C25     23.34000000     62.10000000     46.91000000
C26     23.02000000     61.79000000     45.48000000
C27     21.79000000     62.56000000     44.99000000
C28     20.55000000     62.15000000     45.79000000
C29     19.32000000     62.93000000     45.33000000
C30     18.09000000     62.55000000     46.15000000
C31     16.85000000     63.33000000     45.69000000
C32     15.62000000     62.94000000     46.52000000
C33     15.77000000     63.40000000     47.97000000
C34     34.21000000     62.45000000     56.24000000
OS35     33.40000000     62.01000000     57.35000000
C36     32.52000000     62.92000000     57.86000000
O37     32.61000000     64.14000000     57.67000000
C38     31.72000000     62.28000000     58.99000000
C39     30.29000000     62.78000000     59.13000000
C40     29.34000000     62.17000000     58.10000000
C41     27.89000000     62.51000000     58.46000000
C42     26.89000000     61.96000000     57.43000000
C43     25.45000000     62.22000000     57.85000000
C44     25.17000000     63.73000000     57.96000000
C45     23.69000000     64.02000000     58.24000000
C46     23.48000000     65.52000000     58.42000000
C47     22.00000000     65.90000000     58.47000000
C48     21.29000000     65.36000000     59.71000000
C49     19.83000000     65.82000000     59.73000000
C50     19.10000000     65.32000000     60.98000000
C51     17.66000000     65.83000000     61.01000000
C52     17.62000000     67.35000000     61.17000000
 C1     30.68000000     53.41000000     53.97000000
 C2     32.96000000     53.80000000     54.45000000
 C3     31.27000000     54.95000000     55.66000000
 N4     31.63000000     53.67000000     55.05000000
 C5     31.61000000     52.60000000     56.08000000
 C6     30.31000000     52.32000000     56.87000000
OS7     29.33000000     51.63000000     56.11000000
 P8     27.98000000     52.43000000     55.89000000
OM9     28.38000000     53.85000000     55.96000000
OM10     27.43000000     51.79000000     54.70000000
OS11     27.24000000     52.04000000     57.20000000
C12     25.85000000     52.32000000     57.06000000
C13     25.00000000     51.79000000     58.24000000
OS14     24.66000000     50.38000000     58.16000000
C15     25.45000000     49.49000000     58.81000000
O16     26.57000000     49.74000000     59.26000000
C17     24.82000000     48.11000000     58.80000000
C18     25.04000000     47.40000000     60.14000000
C19     24.17000000     46.15000000     60.21000000
C20     24.64000000     45.06000000     59.26000000
C21     23.60000000     43.94000000     59.22000000
C22     24.04000000     42.80000000     58.31000000
C23     22.96000000     41.72000000     58.17000000
C24     22.61000000     41.08000000     59.49000000
C25     21.43000000     41.20000000     60.11000000
C26     21.02000000     40.60000000     61.42000000
C27     19.58000000     40.10000000     61.36000000
C28     18.66000000     41.25000000     60.94000000
C29     17.19000000     40.84000000     60.94000000
C30     16.66000000     40.71000000     62.37000000
C31     15.17000000     40.38000000     62.37000000
C32     14.62000000     40.35000000     63.80000000
C33     14.65000000     41.75000000     64.42000000
C34     23.72000000     52.64000000     58.29000000
OS35     23.91000000     54.05000000     58.58000000
C36     23.42000000     54.56000000     59.75000000
O37     23.17000000     55.76000000     59.89000000
C38     23.30000000     53.56000000     60.89000000
C39     23.59000000     54.31000000     62.19000000
C40     23.66000000     53.37000000     63.40000000
C41     22.28000000     52.79000000     63.72000000
C42     22.38000000     51.78000000     64.86000000
C43     20.98000000     51.28000000     65.23000000
C44     20.35000000     50.55000000     64.05000000
C45     18.87000000     50.28000000     64.34000000
C46     18.18000000     49.62000000     63.14000000
C47     16.67000000     49.61000000     63.38000000
C48     16.12000000     51.03000000     63.34000000
C49     14.65000000     51.08000000     63.75000000
C50     14.49000000     50.73000000     65.23000000
C51     13.04000000     50.87000000     65.67000000
C52     12.60000000     52.33000000     65.65000000
 C1     46.24000000     43.36000000     41.31000000
 C2     44.18000000     43.60000000     42.45000000
 C3     44.90000000     45.23000000     40.83000000
 N4     44.85000000     43.80000000     41.16000000
 C5     44.09000000     43.10000000     40.10000000
 C6     44.81000000     42.38000000     38.94000000
OS7     45.34000000     41.12000000     39.35000000
 P8     46.65000000     40.75000000     38.53000000
OM9     47.44000000     41.98000000     38.68000000
OM10     47.03000000     39.54000000     39.26000000
OS11     45.84000000     40.48000000     37.21000000
C12     45.71000000     39.10000000     36.87000000
C13     44.32000000     38.78000000     36.28000000
OS14     44.05000000     37.36000000     36.14000000
C15     42.88000000     36.93000000     36.69000000
O16     42.36000000     37.59000000     37.60000000
C17     42.45000000     35.52000000     36.30000000
C18     43.44000000     34.40000000     36.63000000
C19     42.79000000     33.05000000     36.28000000
C20     43.81000000     31.92000000     36.05000000
C21     44.32000000     31.22000000     37.30000000
C22     43.31000000     30.21000000     37.88000000
C23     44.02000000     29.36000000     38.95000000
C24     43.15000000     28.44000000     39.76000000
C25     41.83000000     28.21000000     39.67000000
C26     41.07000000     27.28000000     40.57000000
C27     40.24000000     26.22000000     39.83000000
C28     39.23000000     26.90000000     38.91000000
C29     38.27000000     25.92000000     38.23000000
C30     37.07000000     25.60000000     39.12000000
C31     36.06000000     24.74000000     38.35000000
C32     34.77000000     24.56000000     39.15000000
C33     34.02000000     25.88000000     39.28000000
C34     44.22000000     39.60000000     34.98000000
OS35     42.88000000     39.94000000     34.56000000
C36     42.61000000     39.58000000     33.27000000
O37     43.44000000     39.12000000     32.49000000
C38     41.20000000     39.98000000     32.91000000
C39     40.42000000     38.81000000     32.31000000
C40     40.11000000     37.76000000     33.38000000
C41     39.29000000     36.63000000     32.77000000
C42     39.01000000     35.52000000     33.78000000
C43     38.11000000     34.47000000     33.12000000
C44     38.85000000     33.80000000     31.96000000
C45     37.85000000     33.16000000     30.99000000
C46     37.08000000     32.01000000     31.63000000
C47     35.97000000     31.54000000     30.69000000
C48     36.57000000     31.04000000     29.37000000
C49     35.47000000     30.67000000     28.38000000
C50     36.07000000     30.24000000     27.04000000
C51     34.97000000     29.89000000     26.04000000
C52     35.57000000     29.48000000     24.69000000
 C1     62.93000000     40.16000000     46.57000000
 C2     64.54000000     39.18000000     48.07000000
 C3     62.56000000     38.04000000     47.59000000
 N4     63.58000000     38.92000000     47.00000000
 C5     64.29000000     38.19000000     45.92000000
 C6     65.15000000     39.00000000     44.92000000
OS7     66.03000000     39.89000000     45.60000000
 P8     66.05000000     41.37000000     45.09000000
OM9     64.83000000     41.57000000     44.28000000
OM10     66.15000000     42.15000000     46.32000000
OS11     67.32000000     41.50000000     44.17000000
C12     68.46000000     40.75000000     44.62000000
C13     68.90000000     39.66000000     43.61000000
OS14     69.69000000     38.58000000     44.17000000
C15     69.02000000     37.40000000     44.31000000
O16     67.79000000     37.34000000     44.31000000
C17     69.94000000     36.26000000     44.70000000
C18     69.29000000     34.91000000     44.38000000
C19     70.11000000     33.74000000     44.94000000
C20     69.62000000     32.40000000     44.39000000
C21     68.20000000     32.08000000     44.85000000
C22     67.74000000     30.72000000     44.31000000
C23     66.30000000     30.43000000     44.72000000
C24     65.79000000     29.11000000     44.23000000
C25     66.46000000     28.21000000     43.49000000
C26     65.92000000     26.90000000     43.01000000
C27     66.51000000     25.72000000     43.77000000
C28     68.02000000     25.61000000     43.53000000
C29     68.61000000     24.41000000     44.27000000
C30     68.07000000     23.10000000     43.69000000
C31     68.68000000     21.89000000     44.40000000
C32     68.14000000     20.59000000     43.81000000
C33     68.62000000     20.41000000     42.37000000
C34     69.52000000     40.40000000     42.42000000
OS35     68.76000000     40.30000000     41.20000000
C36     69.50000000     39.82000000     40.16000000
O37     70.71000000     39.62000000     40.24000000
C38     68.68000000     39.62000000     38.91000000
C39     69.33000000     38.56000000     38.02000000
C40     68.55000000     38.32000000     36.72000000
C41     69.28000000     37.26000000     35.89000000
C42     69.20000000     35.91000000     36.59000000
C43     70.19000000     34.89000000     36.03000000
C44     70.12000000     33.61000000     36.87000000
C45     71.31000000     32.68000000     36.61000000
C46     71.29000000     31.54000000     37.63000000
C47     72.52000000     30.64000000     37.51000000
C48     72.49000000     29.55000000     38.58000000
C49     73.74000000     28.67000000     38.51000000
C50     74.99000000     29.48000000     38.87000000
C51     76.24000000     28.61000000     38.85000000
C52     76.20000000     27.57000000     39.97000000
 C1     57.15000000     59.97000000     57.02000000
 C2     59.21000000     60.07000000     58.20000000
 C3     57.38000000     58.87000000     59.14000000
 N4     57.75000000     60.05000000     58.35000000
 C5     57.23000000     61.30000000     58.96000000
 C6     57.56000000     61.60000000     60.43000000
OS7     58.96000000     61.68000000     60.66000000
 P8     59.26000000     61.27000000     62.13000000
OM9     58.42000000     62.18000000     62.90000000
OM10     58.95000000     59.83000000     62.02000000
OS11     60.80000000     61.58000000     62.11000000
C12     61.61000000     60.53000000     61.58000000
C13     62.36000000     60.89000000     60.28000000
OS14     63.19000000     59.78000000     59.82000000
C15     63.44000000     59.63000000     58.49000000
O16     62.56000000     59.75000000     57.63000000
C17     64.63000000     58.70000000     58.32000000
C18     65.62000000     59.18000000     57.25000000
C19     66.57000000     60.26000000     57.78000000
C20     67.76000000     60.44000000     56.82000000
C21     68.76000000     61.43000000     57.41000000
C22     70.01000000     61.63000000     56.55000000
C23     70.82000000     62.79000000     57.14000000
C24     72.18000000     62.98000000     56.52000000
C25     73.25000000     63.41000000     57.21000000
C26     74.64000000     63.61000000     56.68000000
C27     75.71000000     63.23000000     57.71000000
C28     75.61000000     64.11000000     58.96000000
C29     76.75000000     63.82000000     59.93000000
C30     78.09000000     64.29000000     59.36000000
C31     79.30000000     64.02000000     60.25000000
C32     79.52000000     65.05000000     61.37000000
C33     78.78000000     64.73000000     62.66000000
C34     63.16000000     62.16000000     60.61000000
OS35     63.43000000     63.03000000     59.49000000
C36     64.03000000     64.20000000     59.85000000
O37     64.33000000     64.45000000     61.01000000
C38     64.19000000     65.13000000     58.66000000
C39     63.72000000     66.58000000     58.86000000
C40     64.80000000     67.51000000     59.41000000
C41     64.80000000     67.62000000     60.94000000
C42     66.10000000     68.24000000     61.45000000
C43     66.20000000     68.07000000     62.97000000