#B3LYP/6-31+G(d) OPT FREQ

6100, Energy = 1254982.99379531 au

0 1
 C1     50.30000000     51.96000000     41.77000000
 C2     47.64000000     51.09000000     40.99000000
 C3     49.88000000     52.31000000     42.64000000
 N4     48.83000000     51.85000000     41.55000000
 C5     48.51000000     52.74000000     40.76000000
 C6     49.55000000     53.45000000     39.97000000
OS7     50.30000000     52.67000000     39.17000000
 P8     51.12000000     53.53000000     38.02000000
OM9     51.75000000     53.68000000     39.31000000
OM10     52.16000000     53.02000000     37.37000000
OS11     49.99000000     54.27000000     37.49000000
C12     49.91000000     53.49000000     36.34000000
C13     48.78000000     53.76000000     35.49000000
OS14     48.30000000     52.58000000     34.79000000
C15     47.47000000     51.75000000     35.43000000
O16     46.75000000     51.86000000     36.37000000
C17     47.86000000     50.86000000     34.78000000
C18     47.53000000     49.35000000     34.59000000
C19     47.03000000     48.00000000     33.81000000
C20     45.92000000     47.51000000     32.77000000
C21     45.01000000     46.80000000     31.63000000
C22     43.52000000     46.64000000     31.01000000
C23     43.64000000     46.59000000     29.77000000
C24     42.54000000     47.10000000     28.99000000
C25     42.29000000     46.45000000     27.87000000
C26     41.22000000     46.82000000     26.89000000
C27     41.20000000     46.01000000     25.59000000
C28     42.14000000     46.57000000     24.52000000
C29     41.51000000     46.36000000     23.15000000
C30     40.21000000     47.17000000     23.03000000
C31     39.64000000     46.73000000     21.68000000
C32     38.42000000     47.42000000     21.12000000
C33     38.74000000     48.65000000     20.57000000
C34     48.89000000     55.23000000     34.87000000
OS35     47.78000000     55.91000000     34.03000000
C36     47.33000000     57.24000000     33.89000000
O37     48.19000000     57.97000000     34.39000000
C38     45.79000000     57.63000000     33.97000000
C39     45.33000000     58.11000000     32.73000000
C40     44.86000000     56.99000000     31.89000000
C41     44.75000000     57.51000000     30.49000000
C42     43.95000000     56.74000000     29.62000000
C43     43.68000000     57.06000000     28.19000000
C44     44.84000000     56.47000000     27.38000000
C45     44.67000000     56.85000000     25.92000000
C46     45.56000000     56.06000000     24.93000000
C47     45.29000000     56.26000000     23.43000000
C48     45.45000000     57.76000000     23.20000000
C49     45.19000000     58.30000000     21.79000000
C50     44.02000000     59.29000000     21.66000000
C51     43.40000000     59.31000000     20.26000000
C52     43.91000000     60.47000000     19.40000000
 C1     35.03000000     49.33000000     51.17000000
 C2     34.97000000     47.69000000     51.05000000
 C3     35.52000000     48.56000000     51.71000000
 N4     35.22000000     48.70000000     51.48000000
 C5     34.11000000     48.10000000     51.65000000
 C6     33.27000000     48.27000000     52.28000000
OS7     32.77000000     50.00000000     51.79000000
 P8     31.40000000     51.22000000     52.80000000
OM9     31.99000000     51.29000000     54.71000000
OM10     30.18000000     51.52000000     52.08000000
OS11     29.58000000     50.19000000     52.67000000
C12     28.73000000     49.61000000     52.37000000
C13     27.98000000     48.98000000     52.41000000
OS14     27.81000000     48.45000000     50.92000000
C15     28.59000000     47.80000000     49.90000000
O16     29.47000000     47.33000000     50.10000000
C17     28.42000000     46.92000000     49.11000000
C18     28.54000000     46.51000000     47.78000000
C19     27.44000000     46.55000000     46.76000000
C20     26.52000000     46.84000000     46.03000000
C21     25.26000000     46.65000000     44.46000000
C22     24.13000000     45.20000000     43.47000000
C23     23.49000000     44.94000000     43.31000000
C24     22.84000000     43.77000000     43.17000000
C25     21.64000000     43.55000000     42.62000000
C26     20.65000000     42.36000000     42.78000000
C27     19.26000000     42.69000000     42.30000000
C28     18.08000000     43.13000000     42.92000000
C29     16.72000000     42.85000000     42.64000000
C30     16.73000000     41.45000000     43.00000000
C31     15.37000000     41.03000000     42.45000000
C32     14.84000000     39.62000000     42.68000000
C33     14.82000000     38.63000000     43.87000000
C34     27.49000000     48.30000000     53.79000000
OS35     27.78000000     46.96000000     54.96000000
C36     27.84000000     45.81000000     56.20000000
O37     27.39000000     46.64000000     56.73000000
C38     27.24000000     44.13000000     56.58000000
C39     25.77000000     43.18000000     56.01000000
C40     24.35000000     43.51000000     55.04000000
C41     22.97000000     43.94000000     54.43000000
C42     22.00000000     43.41000000     53.65000000
C43     20.83000000     42.50000000     53.79000000
C44     20.26000000     43.75000000     53.66000000
C45     18.87000000     43.58000000     54.19000000
C46     17.88000000     44.51000000     53.38000000
C47     16.36000000     44.19000000     53.29000000
C48     16.11000000     43.72000000     54.64000000
C49     14.78000000     43.11000000     54.90000000
C50     14.49000000     41.94000000     55.77000000
C51     13.09000000     41.39000000     55.50000000
C52     12.17000000     41.56000000     56.71000000
 C1     46.52000000     58.10000000     52.45000000
 C2     44.52000000     57.01000000     52.21000000
 C3     45.98000000     57.15000000     52.89000000
 N4     45.25000000     57.62000000     52.31000000
 C5     44.43000000     58.53000000     52.91000000
 C6     45.10000000     59.45000000     53.91000000
OS7     45.80000000     60.47000000     53.33000000
 P8     46.27000000     61.50000000     54.57000000
OM9     46.60000000     60.44000000     55.56000000
OM10     47.09000000     62.58000000     54.12000000
OS11     44.83000000     61.65000000     54.77000000
C12     44.28000000     62.61000000     54.06000000
C13     42.85000000     63.08000000     53.95000000
OS14     42.35000000     64.19000000     53.19000000
C15     41.85000000     63.82000000     52.05000000
O16     42.14000000     62.67000000     51.94000000
C17     41.39000000     65.00000000     51.20000000
C18     40.99000000     64.64000000     49.90000000
C19     41.13000000     65.38000000     48.65000000
C20     40.00000000     65.72000000     48.45000000
C21     39.92000000     66.82000000     47.49000000
C22     38.54000000     67.45000000     47.54000000
C23     38.52000000     68.64000000     46.63000000
C24     37.25000000     69.39000000     46.79000000
C25     36.87000000     70.50000000     46.14000000
C26     35.57000000     71.22000000     46.34000000
C27     35.43000000     72.55000000     45.60000000
C28     36.00000000     73.74000000     46.39000000
C29     35.14000000     74.97000000     46.12000000
C30     33.73000000     74.76000000     46.66000000
C31     32.96000000     76.00000000     46.19000000
C32     31.57000000     76.28000000     46.76000000
C33     31.57000000     76.58000000     48.26000000
C34     42.22000000     63.86000000     55.11000000
OS35     41.13000000     64.19000000     55.43000000
C36     40.39000000     63.77000000     55.68000000
O37     41.62000000     63.41000000     56.01000000
C38     38.97000000     64.38000000     56.36000000
C39     38.32000000     65.19000000     57.51000000
C40     38.18000000     66.24000000     56.64000000
C41     37.66000000     67.49000000     57.24000000
C42     36.90000000     68.21000000     56.14000000
C43     36.26000000     69.51000000     56.61000000
C44     37.33000000     70.60000000     56.46000000
C45     36.76000000     71.97000000     56.84000000
C46     37.59000000     73.17000000     56.33000000
C47     36.97000000     74.57000000     56.54000000
C48     36.82000000     74.69000000     58.06000000
C49     36.18000000     75.97000000     58.61000000
C50     34.84000000     75.78000000     59.33000000
C51     33.94000000     77.03000000     59.31000000
C52     34.03000000     77.86000000     60.59000000
 C1     45.03000000     56.23000000     43.96000000
 C2     42.24000000     55.68000000     43.91000000
 C3     44.37000000     56.69000000     45.53000000
 N4     43.46000000     56.30000000     44.35000000
 C5     43.13000000     56.73000000     43.73000000
 C6     43.43000000     58.08000000     43.94000000
OS7     44.23000000     58.21000000     42.91000000
 P8     44.47000000     59.56000000     42.92000000
OM9     44.57000000     60.02000000     44.34000000
OM10     45.54000000     59.74000000     41.97000000
OS11     43.00000000     59.75000000     42.56000000
C12     42.38000000     59.71000000     41.44000000
C13     41.16000000     59.87000000     40.70000000
OS14     41.15000000     59.39000000     39.38000000
C15     41.42000000     58.31000000     39.09000000
O16     41.06000000     57.62000000     40.02000000
C17     41.71000000     58.23000000     37.55000000
C18     42.66000000     57.17000000     36.38000000
C19     42.45000000     56.48000000     34.55000000
C20     41.28000000     55.46000000     33.55000000
C21     40.16000000     55.55000000     33.03000000
C22     38.73000000     55.79000000     32.96000000
C23     39.03000000     55.93000000     31.50000000
C24     37.76000000     56.17000000     30.80000000
C25     37.63000000     56.21000000     29.48000000
C26     36.41000000     56.32000000     28.76000000
C27     36.37000000     56.60000000     27.24000000
C28     36.65000000     58.05000000     26.81000000
C29     36.03000000     58.38000000     25.47000000
C30     34.62000000     58.28000000     25.31000000
C31     33.74000000     58.52000000     24.22000000
C32     32.31000000     58.70000000     24.26000000
C33     31.96000000     60.06000000     23.97000000
C34     40.64000000     61.27000000     40.97000000
OS35     39.23000000     61.26000000     40.80000000
C36     38.57000000     62.30000000     41.36000000
O37     39.03000000     63.20000000     42.03000000
C38     37.17000000     62.03000000     41.22000000
C39     36.19000000     62.86000000     40.52000000
C40     36.03000000     62.35000000     39.10000000
C41     35.35000000     63.40000000     38.22000000
C42     34.90000000     62.78000000     36.90000000
C43     34.13000000     63.73000000     36.00000000
C44     35.16000000     64.50000000     35.22000000
C45     34.45000000     65.41000000     34.26000000
C46     35.16000000     66.09000000     33.22000000
C47     34.15000000     66.46000000     32.28000000
C48     34.17000000     67.86000000     32.90000000
C49     33.03000000     68.67000000     32.55000000
C50     31.73000000     69.20000000     32.24000000
C51     31.07000000     69.64000000     30.97000000
C52     30.81000000     71.14000000     31.04000000
 C1     51.24000000     46.32000000     42.09000000
 C2     52.36000000     45.94000000     42.39000000
 C3     49.90000000     45.68000000     42.87000000
 N4     51.06000000     46.11000000     42.49000000
 C5     51.12000000     44.95000000     41.81000000
 C6     50.07000000     44.45000000     40.99000000
OS7     50.02000000     45.14000000     39.92000000
 P8     48.82000000     44.55000000     38.85000000
OM9     47.62000000     44.49000000     39.76000000
OM10     48.61000000     45.23000000     37.69000000
OS11     49.75000000     43.35000000     38.50000000
C12     50.51000000     43.42000000     37.38000000
C13     51.54000000     42.33000000     37.23000000
OS14     52.42000000     42.83000000     36.26000000
C15     53.16000000     43.72000000     36.81000000
O16     53.39000000     43.34000000     38.02000000
C17     53.83000000     44.39000000     35.47000000
C18     55.01000000     45.29000000     35.41000000
C19     56.09000000     45.12000000     34.35000000
C20     57.48000000     44.72000000     34.42000000
C21     58.47000000     45.23000000     33.53000000
C22     59.82000000     44.82000000     33.18000000
C23     60.15000000     44.49000000     31.84000000
C24     61.03000000     43.37000000     31.46000000
C25     61.73000000     43.46000000     30.35000000
C26     62.59000000     42.38000000     29.79000000
C27     63.21000000     42.69000000     28.42000000
C28     62.29000000     42.36000000     27.25000000
C29     63.14000000     41.86000000     26.08000000
C30     63.83000000     40.55000000     26.44000000
C31     64.73000000     40.35000000     25.25000000
C32     65.29000000     39.08000000     25.18000000
C33     63.97000000     38.31000000     24.89000000
C34     50.85000000     41.00000000     36.92000000
OS35     51.65000000     39.81000000     36.98000000
C36     51.09000000     38.59000000     36.93000000
O37     49.88000000     38.42000000     36.93000000
C38     52.17000000     37.58000000     37.26000000
C39     52.32000000     36.51000000     36.18000000
C40     53.63000000     36.53000000     35.43000000
C41     53.86000000     35.65000000     34.22000000
C42     55.08000000     36.13000000     33.37000000
C43     55.21000000     35.31000000     32.08000000
C44     55.12000000     36.18000000     30.86000000
C45     55.16000000     35.51000000     29.55000000
C46     54.82000000     36.36000000     28.31000000
C47     55.02000000     35.81000000     26.89000000
C48     55.15000000     34.35000000     26.40000000
C49     54.99000000     33.18000000     25.55000000
C50     54.65000000     31.72000000     26.06000000
C51     55.29000000     31.04000000     24.91000000
C52     54.35000000     30.10000000     24.18000000
 C1     60.19000000     55.24000000     54.29000000
 C2     58.43000000     56.50000000     54.02000000
 C3     58.18000000     56.06000000     54.56000000
 N4     58.96000000     55.67000000     54.42000000
 C5     59.38000000     56.52000000     54.98000000
 C6     60.02000000     56.41000000     56.36000000
OS7     61.41000000     55.96000000     56.17000000
 P8     61.98000000     55.97000000     57.60000000
OM9     60.80000000     55.62000000     58.29000000
OM10     63.18000000     55.61000000     57.89000000
OS11     61.85000000     57.25000000     57.41000000
C12     62.75000000     58.17000000     56.97000000
C13     62.19000000     59.75000000     56.93000000
OS14     63.66000000     59.93000000     56.28000000
C15     63.58000000     60.79000000     55.39000000
O16     62.39000000     60.74000000     55.18000000
C17     64.90000000     61.25000000     54.98000000
C18     65.95000000     60.88000000     54.01000000
C19     66.67000000     61.79000000     53.10000000
C20     66.31000000     62.89000000     52.20000000
C21     67.18000000     63.49000000     51.49000000
C22     67.21000000     64.81000000     51.80000000
C23     68.43000000     65.31000000     51.14000000
C24     68.94000000     66.55000000     51.72000000
C25     69.94000000     67.09000000     51.31000000
C26     70.35000000     68.03000000     52.07000000
C27     71.66000000     67.50000000     51.63000000
C28     73.11000000     68.75000000     52.09000000
C29     73.72000000     70.94000000     52.00000000
C30     72.98000000     72.50000000     51.13000000
C31     74.11000000     73.61000000     52.17000000
C32     73.94000000     74.95000000     53.76000000
C33     72.21000000     75.58000000     54.57000000
C34     61.20000000     60.72000000     57.90000000
OS35     61.71000000     61.62000000     59.05000000
C36     61.50000000     62.01000000     60.22000000
O37     61.48000000     61.28000000     61.16000000
C38     60.84000000     63.27000000     59.91000000
C39     61.30000000     64.35000000     60.80000000
C40     62.23000000     65.20000000     60.34000000
C41     63.13000000     66.09000000     60.97000000
C42     62.93000000     67.47000000     60.54000000
C43     64.20000000     67.38000000     61.62000000
C44     65.40000000     66.74000000     62.50000000
C45     67.41000000     66.74000000     62.79000000
C46     69.25000000     67.09000000     61.98000000
C47     70.32000000     68.23000000     62.58000000
C48     69.95000000     68.84000000     64.02000000
C49     70.32000000     70.32000000     64.66000000
C50     69.90000000     71.61000000     65.50000000
C51     70.42000000     73.01000000     65.17000000
C52     70.17000000     73.77000000     66.47000000
 C1     41.60000000     57.78000000     50.29000000
 C2     39.54000000     56.39000000     48.75000000
 C3     41.55000000     57.06000000     51.00000000
 N4     40.64000000     57.04000000     49.68000000
 C5     39.55000000     57.76000000     50.27000000
 C6     39.57000000     58.81000000     51.04000000
OS7     39.92000000     59.64000000     50.37000000
 P8     39.95000000     61.02000000     50.99000000
OM9     41.13000000     60.55000000     51.67000000
OM10     40.20000000     62.20000000     50.57000000
OS11     38.41000000     60.75000000     51.01000000
C12     37.77000000     61.92000000     50.51000000
C13     36.31000000     61.64000000     50.56000000
OS14     35.82000000     61.94000000     49.29000000
C15     35.55000000     61.04000000     48.33000000
O16     35.74000000     59.88000000     48.63000000
C17     34.78000000     61.54000000     47.15000000
C18     35.16000000     60.94000000     46.05000000
C19     34.67000000     61.63000000     44.88000000
C20     33.40000000     61.76000000     44.75000000
C21     32.92000000     62.36000000     43.41000000
C22     31.36000000     62.23000000     43.19000000
C23     30.95000000     62.86000000     41.92000000
C24     29.49000000     63.11000000     41.94000000
C25     28.83000000     63.83000000     41.03000000
C26     27.35000000     64.08000000     41.04000000
C27     26.83000000     65.05000000     39.98000000
C28     26.90000000     66.51000000     40.43000000
C29     25.71000000     67.27000000     39.85000000
C30     24.40000000     66.73000000     40.43000000
C31     23.31000000     67.47000000     39.67000000
C32     21.86000000     67.38000000     40.17000000
C33     21.64000000     68.03000000     41.53000000
C34     35.71000000     62.28000000     51.81000000
OS35     34.35000000     61.96000000     52.11000000
C36     34.05000000     62.38000000     53.36000000
O37     34.61000000     62.88000000     54.25000000
C38     33.18000000     61.96000000     54.04000000
C39     32.50000000     63.46000000     53.56000000
C40     31.53000000     64.21000000     52.45000000
C41     29.82000000     64.64000000     52.00000000
C42     28.67000000     64.34000000     51.11000000
C43     27.69000000     65.36000000     51.40000000
C44     28.38000000     66.64000000     50.94000000
C45     27.36000000     67.78000000     50.97000000
C46     27.77000000     69.02000000     50.15000000
C47     26.71000000     70.12000000     50.00000000
C48     26.40000000     70.56000000     51.44000000
C49     25.32000000     71.64000000     51.63000000
C50     24.07000000     71.19000000     52.41000000
C51     22.81000000     72.00000000     52.05000000
C52     22.51000000     73.09000000     53.07000000
 C1     41.60000000     56.71000000     46.34000000
 C2     42.06000000     56.54000000     47.54000000
 C3     42.42000000     57.05000000     47.60000000
 N4     41.75000000     56.64000000     47.51000000
 C5     41.18000000     57.73000000     46.96000000
 C6     40.36000000     58.76000000     46.75000000
OS7     41.27000000     59.10000000     45.58000000
 P8     41.66000000     60.79000000     45.17000000
OM9     42.98000000     61.23000000     45.68000000
OM10     41.78000000     61.25000000     43.97000000
OS11     40.35000000     61.19000000     45.88000000
C12     39.46000000     61.36000000     44.83000000
C13     38.07000000     61.57000000     45.21000000
OS14     37.26000000     61.22000000     44.06000000
C15     36.93000000     60.02000000     43.74000000
O16     37.09000000     59.34000000     44.64000000
C17     35.85000000     59.99000000     42.83000000
C18     35.76000000     59.53000000     41.77000000
C19     34.67000000     59.16000000     40.67000000
C20     33.26000000     58.38000000     40.42000000
C21     32.18000000     58.35000000     40.17000000
C22     30.99000000     58.58000000     40.55000000
C23     30.36000000     58.67000000     39.25000000
C24     29.03000000     59.19000000     39.01000000
C25     27.95000000     58.51000000     38.31000000
C26     26.58000000     58.30000000     37.95000000
C27     27.43000000     59.71000000     37.01000000
C28     26.99000000     61.72000000     36.91000000
C29     25.46000000     63.00000000     37.26000000
C30     23.44000000     62.81000000     37.56000000
C31     21.98000000     61.95000000     37.23000000
C32     21.15000000     62.93000000     37.99000000
C33     21.35000000     64.49000000     38.30000000
C34     37.93000000     62.95000000     45.91000000
OS35     36.74000000     63.31000000     46.60000000
C36     36.60000000     64.30000000     47.46000000
O37     37.52000000     64.97000000     47.70000000
C38     35.35000000     64.34000000     48.29000000
C39     34.33000000     65.34000000     48.11000000
C40     33.32000000     64.95000000     47.04000000
C41     32.47000000     66.17000000     46.67000000
C42     31.23000000     65.74000000     45.87000000
C43     30.30000000     66.90000000     45.53000000
C44     30.82000000     67.51000000     44.23000000
C45     29.90000000     68.64000000     43.76000000
C46     30.07000000     69.04000000     42.28000000
C47     29.06000000     70.05000000     41.73000000
C48     29.25000000     71.30000000     42.59000000
C49     28.34000000     72.50000000     42.31000000
C50     27.39000000     72.89000000     43.45000000
C51     26.12000000     73.61000000     42.97000000
C52     26.21000000     75.13000000     43.11000000
 C1     62.83000000     50.70000000     45.40000000
 C2     62.68000000     50.21000000     43.76000000
 C3     62.93000000     50.89000000     45.40000000
 N4     62.99000000     50.25000000     45.15000000
 C5     63.48000000     51.05000000     44.20000000
 C6     64.74000000     51.80000000     44.49000000
OS7     65.67000000     50.98000000     45.08000000
 P8     67.07000000     51.88000000     45.15000000
OM9     66.52000000     53.11000000     45.72000000
OM10     68.02000000     51.09000000     45.59000000
OS11     66.88000000     52.04000000     43.95000000
C12     66.89000000     51.92000000     42.87000000
C13     67.92000000     51.73000000     41.26000000
OS14     68.17000000     50.11000000     40.06000000
C15     67.66000000     48.21000000     40.30000000
O16     66.46000000     47.63000000     40.71000000
C17     68.09000000     46.61000000     40.59000000
C18     68.28000000     46.23000000     40.98000000
C19     68.31000000     45.01000000     40.08000000
C20     68.15000000     44.86000000     38.53000000
C21     68.74000000     43.81000000     37.84000000
C22     68.83000000     43.87000000     36.36000000
C23     69.82000000     42.75000000     36.11000000
C24     70.11000000     42.61000000     34.73000000
C25     70.97000000     41.79000000     34.25000000
C26     71.03000000     41.22000000     32.92000000
C27     72.36000000     40.49000000     32.58000000
C28     73.90000000     40.94000000     32.50000000
C29     74.75000000     40.50000000     31.16000000
C30     74.26000000     40.35000000     29.63000000
C31     75.20000000     40.47000000     28.49000000
C32     74.80000000     41.02000000     27.20000000
C33     75.37000000     41.34000000     26.99000000
C34     67.62000000     52.89000000     40.63000000
OS35     68.18000000     52.89000000     39.48000000
C36     68.43000000     54.15000000     39.25000000
O37     69.19000000     54.83000000     39.95000000
C38     68.16000000     54.15000000     37.79000000
C39     69.16000000     54.43000000     36.71000000
C40     69.56000000     53.10000000     36.00000000
C41     70.57000000     53.32000000     34.88000000
C42     71.16000000     52.05000000     34.28000000
C43     72.31000000     52.29000000     33.31000000
C44     73.57000000     51.77000000     34.02000000
C45     74.80000000     51.90000000     33.11000000
C46     76.03000000     51.12000000     33.59000000
C47     77.19000000     50.95000000     32.61000000
C48     77.68000000     52.27000000     32.28000000
C49     78.80000000     52.60000000     31.31000000
C50     78.40000000     53.47000000     30.08000000
C51     79.33000000     53.24000000     28.91000000
C52     80.41000000     54.30000000     28.75000000
 C1     36.04000000     51.14000000     53.46000000
 C2     36.27000000     51.74000000     54.04000000
 C3     36.27000000     51.22000000     52.87000000
 N4     36.05000000     51.46000000     52.92000000
 C5     34.94000000     51.98000000     53.42000000
 C6     33.95000000     51.82000000     53.48000000
OS7     33.55000000     50.03000000     53.78000000
 P8     31.39000000     49.09000000     53.83000000
OM9     30.99000000     48.52000000     52.09000000
OM10     31.49000000     48.63000000     54.57000000
OS11     30.07000000     50.57000000     54.58000000
C12     29.75000000     52.08000000     54.65000000
C13     29.44000000     52.40000000     55.45000000
OS14     29.60000000     52.67000000     56.77000000
C15     30.62000000     52.77000000     57.54000000
O16     31.67000000     52.46000000     57.14000000
C17     30.34000000     52.69000000     58.98000000
C18     31.63000000     53.01000000     59.32000000
C19     30.70000000     53.11000000     60.09000000
C20     30.88000000     53.75000000     61.52000000
C21     30.81000000     54.05000000     63.18000000
C22     30.68000000     56.39000000     64.35000000
C23     31.00000000     56.33000000     66.36000000
C24     29.99000000     57.25000000     66.72000000
C25     28.97000000     56.93000000     67.62000000
C26     28.00000000     57.82000000     67.77000000
C27     27.19000000     57.58000000     68.92000000
C28     26.30000000     56.83000000     69.63000000
C29     25.38000000     57.85000000     69.68000000
C30     25.35000000     58.78000000     70.40000000
C31     24.19000000     59.42000000     71.25000000
C32     23.45000000     60.92000000     71.00000000
C33     22.08000000     61.60000000     70.40000000
C34     28.38000000     52.30000000     54.40000000
OS35     27.72000000     53.44000000     53.68000000
C36     27.34000000     54.67000000     52.93000000
O37     26.53000000     54.10000000     52.61000000
C38     27.02000000     56.26000000     53.05000000
C39     25.88000000     57.19000000     53.84000000
C40     25.09000000     57.13000000     55.16000000
C41     23.90000000     57.33000000     55.98000000
C42     23.77000000     56.58000000     57.33000000
C43     22.79000000     56.94000000     57.36000000
C44     22.24000000     56.56000000     58.74000000
C45     20.88000000     57.11000000     59.25000000
C46     20.32000000     56.13000000     60.22000000
C47     19.09000000     56.53000000     61.00000000
C48     18.18000000     57.10000000     60.03000000
C49     16.89000000     57.76000000     60.38000000
C50     16.13000000     58.79000000     59.68000000
C51     15.12000000     59.28000000     60.70000000
C52     13.72000000     59.16000000     60.13000000
 C1     49.97000000     46.90000000     58.08000000
 C2     50.78000000     46.34000000     57.03000000
 C3     50.58000000     46.67000000     57.00000000
 N4     50.76000000     46.56000000     57.60000000
 C5     51.27000000     45.79000000     58.54000000
 C6     51.72000000     46.37000000     59.85000000
OS7     50.71000000     46.81000000     60.64000000
 P8     51.37000000     47.28000000     62.01000000
OM9     52.61000000     47.95000000     61.68000000
OM10     50.13000000     47.92000000     62.48000000
OS11     51.90000000     45.92000000     62.45000000
C12     50.94000000     45.24000000     63.29000000
C13     51.20000000     43.80000000     63.59000000
OS14     49.98000000     43.15000000     64.00000000
C15     49.14000000     42.49000000     63.21000000
O16     49.17000000     42.23000000     62.10000000
C17     48.08000000     41.78000000     63.79000000
C18     46.95000000     41.84000000     62.95000000
C19     45.74000000     41.21000000     63.46000000
C20     45.52000000     40.03000000     64.22000000
C21     44.53000000     38.94000000     64.28000000
C22     44.84000000     37.51000000     64.48000000
C23     43.71000000     37.11000000     65.30000000
C24     43.94000000     35.81000000     65.95000000
C25     43.05000000     35.18000000     66.69000000
C26     43.23000000     34.01000000     67.49000000
C27     42.26000000     33.24000000     68.32000000
C28     42.53000000     33.72000000     69.73000000
C29     42.11000000     32.62000000     70.69000000
C30     43.00000000     31.39000000     70.54000000
C31     42.37000000     30.37000000     71.47000000
C32     43.12000000     29.15000000     71.90000000
C33     44.44000000     29.22000000     72.48000000
C34     52.48000000     43.66000000     64.43000000
OS35     53.04000000     42.34000000     64.49000000
C36     54.28000000     42.20000000     65.01000000
O37     54.92000000     43.14000000     65.38000000
C38     54.77000000     40.81000000     64.69000000
C39     55.08000000     39.99000000     65.94000000
C40     53.87000000     39.15000000     66.35000000
C41     54.07000000     38.49000000     67.72000000
C42     53.01000000     37.40000000     67.95000000
C43     53.19000000     36.64000000     69.26000000