#B3LYP/6-31+G(d) OPT FREQ

110, Energy = -12615.98901257 au

0 1
 Ni      0.23438900     -3.62013000     -2.49289000
 Ni     -1.41470000     -0.33988800     -1.28408000
 Ni      0.52704300     -4.24862000      0.16143300
 Ni     -0.65398900      4.09144000     -0.31700400
 Ni     -1.33794000      2.29084000     -2.20609000
 Ni     -3.31182000      0.36389400      0.46886700
 Ni     -1.01574000     -0.97542200      1.20464000
 Ni     -0.26558400      3.45830000      2.17194000
 Ni      0.43623000     -1.17284000     -3.34662000
 Ni      3.26136000     -0.58128400     -0.84544500
 Ni      0.68451500     -1.73225000     -0.62240500
 Ni      2.49979000     -2.50103000     -2.55296000
 Ni      3.33200000      1.92311000     -1.55309000
 Ni      1.65281000     -0.41898000      3.71421000
 Ni      1.31916000      0.11398700      1.10421000
 Ni      2.70659000      0.11794200     -3.32386000
 Ni      1.23645000      3.42021000     -2.30991000
 Ni     -2.09982000     -2.17109000     -3.05342000
 Ni      3.50630000     -1.42825000      1.74021000
 Ni     -1.82584000     -2.85767000     -0.54052400
 Ni      3.81606000      1.23902000      0.96544500
 Ni      0.92390000      0.77771700     -1.39439000
 Ni     -2.02045000      0.33215700     -3.70643000
 Ni     -3.89419000     -1.47666000     -1.30972000
 Ni      1.98956000      1.99515000      2.87930000
 Ni     -0.46686000      0.92568100      3.18942000
 Ni      2.71463000     -3.20767000     -0.03513460
 Ni     -1.16175000     -3.54813000      1.99601000
 Ni     -2.81423000      2.99297000     -0.26388600
 Ni      1.53739000      2.67714000      0.35285400
 Ni     -2.51177000      2.29236000      2.33714000
 Ni     -2.80203000     -0.15349500      3.13584000
 Ni      0.63762800      1.50738000     -3.91101000
 Ni     -0.79055500      1.51345000      0.45756900
 Ni     -3.50981000     -2.20580000      1.20882000
 Ni     -0.56462000     -1.50788000      3.80825000
 Ni     -3.64237000      0.98382800     -2.13906000
 Ni      1.18387000     -2.61292000      1.92570000
  C      1.32104000     -3.04363000     -3.77239000
  O      1.63972000     -3.63045000     -4.88058000
  C      4.62063000      0.84218700     -0.89962000
  O      5.87092000      0.82086500     -1.22961000
  C      3.82185000     -1.29296000     -3.03293000
  O      4.90683000     -1.46655000     -3.72069000
  C      0.46420100      5.45363000      0.71746800
  O      0.30720000      6.75102000      0.65693500
  C     -4.64524000     -1.02382000      2.29490000
  O     -5.82822000     -1.34152000      2.78074000
  C      0.23131100     -0.10615700      4.75921000
  O      0.16422000      0.18200900      6.02666000
  C      2.86537000      2.06033000     -3.34900000
  O      3.69928000      2.58725000     -4.20105000
  C     -1.42185000     -3.92640000     -3.59585000
  O     -1.73308000     -4.77545000     -4.48244000
  C     -3.09942000     -3.85194000      2.46817000
  O     -3.76867000     -4.87595000      3.06316000
  C      5.15577000     -1.40156000      0.89279400
  O      6.36042000     -1.72203000      1.29451000
  C     -4.45076000      1.75624000      1.89718000
  O     -5.58552000      2.03223000      2.26732000
  C      4.10792000     -3.07859000     -1.55142000
  O      5.08630000     -4.08013000     -1.65937000
  C      2.31137000      1.65041000      4.71132000
  O      3.04645000      2.23584000      5.70985000
  C      3.65666000      3.57658000     -0.50255100
  O      4.50439000      4.59852000     -0.58768100
  C     -3.71758000     -1.31554000     -3.12120000
  O     -4.66900000     -1.71946000     -3.91112000
  C      3.41381000     -1.32392000      3.87346000
  O      4.21142000     -1.61731000      4.91825000
  C      1.44753000     -4.59728000     -1.39473000
  O      1.74698000     -5.80744000     -1.77158000
  C     -1.23539000     -0.98216700     -5.08886000
  O     -1.44526000     -1.27343000     -6.38308000
  C      0.51693000     -3.04423000      4.13085000
  O      0.79350800     -3.84937000      5.15786000
  C      2.90662000     -3.43543000      1.75545000
  O      3.45686000     -4.41420000      2.40570000
  C     -4.76584000      0.04735160     -0.96839000
  O     -6.05959000      0.16554600     -0.97435400
  C      1.41787000      5.27797000     -2.52552000
  O      1.79431000      6.20075000     -3.31292000
  C     -3.21943000      1.59675000     -3.72257000
  O     -3.93111000      2.15310000     -4.61703000
  C     -2.30545000      3.97028000      1.42731000
  O     -2.98489000      5.00484000      1.82992000
  C      0.14762300     -4.80907000      1.81565000
  O      0.28698400     -5.97258000      2.34815000
  C     -1.63811000      4.12214000     -1.85576000
  O     -2.09807000      5.03222000     -2.66040000
  C     -4.07568000     -2.95881000     -0.31884600
  O     -4.99381000     -3.85797000     -0.47890500
  C      2.19635000      3.91388000      2.08335000
  O      2.83989000      5.04084000      2.36264000
  C      1.46585000      0.03659990     -4.65131000
  O      1.74285000     -0.10766300     -5.91390000
  C     -2.48081000      1.44959000      3.93180000
  O     -2.93494000      1.89092000      5.05838000
  C     -0.59048400      2.90369000     -4.56031000
  O     -0.81966800      3.41815000     -5.73180000
  C     -0.30859700      3.47429000      4.09448000
  O     -0.42651300      4.47025000      4.93489000
  C     -2.46523000     -1.62640000      4.41974000
  O     -3.07135000     -1.97179000      5.60194000
  C      4.69987000      1.63060000      2.67477000
  O      5.87172000      2.10731000      2.94356000
  C     -1.58884000     -4.83522000     -0.66726300
  O     -2.29865000     -5.93562000     -0.91656400
  C     -4.65008000      2.85810000     -1.31150000
  O     -5.62765000      3.71294000     -1.55208000

