#B3LYP/6-31+G(d) OPT FREQ

110, Energy = -12893.10459741 au

0 1
 Ni     -0.56886600     -3.42557000     -2.03466000
 Ni     -1.32762000      0.08565920     -0.94403800
 Ni     -0.18562600     -4.30715000      0.42501800
 Ni      0.50228300      4.25014000     -0.00776321
 Ni     -0.64160300      2.67528000     -1.81180000
 Ni     -2.77841000      1.12461000      0.98120700
 Ni     -0.92065200     -0.63693000      1.55565000
 Ni      0.79548800      3.54886000      2.44577000
 Ni      0.08343410     -0.92105400     -3.01806000
 Ni      3.31883000     -1.13652000     -0.66776100
 Ni      0.49633500     -1.70594000     -0.35075600
 Ni      1.95406000     -2.78046000     -2.25504000
 Ni      3.77100000      1.37978000     -1.42409000
 Ni      2.21575000     -0.71183200      3.78101000
 Ni      1.57004000     -0.01016860      1.33441000
 Ni      2.72598000     -0.29669600     -3.10965000
 Ni      1.82308000      3.20679000     -2.03762000
 Ni     -2.48559000     -1.64986000     -2.61656000
 Ni      3.43441000     -1.70925000      1.97951000
 Ni     -2.02419000     -2.34431000     -0.20155900
 Ni      4.14527000      0.56510400      1.12694000
 Ni      1.20593000      0.71213400     -1.16121000
 Ni     -1.78387000      0.74316100     -3.50228000
 Ni     -3.95573000     -0.56128600     -0.75783200
 Ni      2.67576000      1.63600000      3.07230000
 Ni      0.15507600      1.15027000      3.64315000
 Ni      2.26143000     -3.51921000      0.09177650
 Ni     -1.60233000     -3.02532000      2.40997000
 Ni     -2.01821000      3.59096000      0.16821200
 Ni      2.61832000      2.62245000      0.66634000
 Ni     -1.72280000      2.77758000      2.73065000
 Ni     -2.40154000      0.32490300      3.49088000
 Ni      0.81512600      1.38870000     -3.78667000
 Ni     -0.22499800      1.76421000      0.75973900
 Ni     -3.44864000     -1.26892000      1.77004000
 Ni     -0.53840900     -1.43630000      4.03007000
 Ni     -3.18030000      1.84151000     -1.53882000
 Ni      0.97923900     -2.64111000      2.26908000
  C     -4.48274000      2.15170000      0.30748500
  O     -5.68614000      2.58706000      0.68806200
  C      4.73447000     -1.17438000      0.68991300
  O      5.98758000     -1.49705000      0.59796200
  C      0.85905800      3.29926000     -4.12972000
  O      1.02201000      3.98387000     -5.28030000
  C     -2.47393000     -3.88596000     -2.41942000
  O     -3.10196000     -4.91370000     -3.03370000
  C      2.70705000      3.46602000      2.59296000
  O      3.41013000      4.37551000      3.18045000
  C     -2.29093000      2.57883000     -3.68582000
  O     -2.80568000      3.36163000     -4.70289000
  C     -4.65536000      0.85973700     -2.40503000
  O     -5.80350000      1.21571000     -2.98363000
  C      1.82448000      0.93356900      4.61827000
  O      2.15221000      1.21002000      5.84499000
  C     -4.60991000     -2.17732000     -1.57161000
  O     -5.83249000     -2.59222000     -1.92664000
  C      4.38844000     -0.23914500     -2.15510000
  O      5.57192000     -0.43698100     -2.64559000
  C     -1.60860000     -5.55586000      0.01784580
  O     -1.60583000     -6.83731000      0.16399800
  C     -3.66496000      1.80855000      3.47916000
  O     -4.61989000      2.13623000      4.37857000
  C     -0.44342100      0.39297700     -4.77033000
  O     -0.65291900      0.25124000     -6.05083000
  C     -0.28874400      3.03814000      3.95408000
  O     -0.32283400      3.70939000      5.06291000
  C      2.19708000      0.12141600     -4.91321000
  O      2.88180000      0.19817900     -6.07924000
  C      3.37945000      2.51865000     -2.84958000
  O      4.22469000      3.14185000     -3.58244000
  C      1.05418000     -4.51015000     -1.64894000
  O      1.29793000     -5.64424000     -2.22798000
  C     -5.14712000     -0.48014800      1.24452000
  O     -6.40736000     -0.70676100      1.64602000
  C     -3.43336000     -3.48016000      1.06833000
  O     -4.37944000     -4.46706000      0.99258900
  C     -0.00864873     -2.78615000     -4.07998000
  O      0.00033358     -3.24834000     -5.34707000
  C      3.99854000     -3.62293000     -0.55795900
  O      4.95976000     -4.54321000     -0.56077400
  C     -2.88290000     -1.73704000      3.64482000
  O     -3.68074000     -2.19523000      4.55872000
  C      3.02616000     -2.40868000      3.83375000
  O      4.10680000     -2.89702000      4.33396000
  C     -1.03723000      0.23102700      4.86132000
  O     -1.24097000      0.39831000      6.13129000
  C      1.34450000     -2.35184000      4.46232000
  O      1.23561000     -2.89890000      5.63197000
  C      4.23491000      0.49137700      3.04495000
  O      5.30970000      0.79079900      3.70734000
  C      1.46384000     -4.32272000      1.63197000
  O      1.95741000     -5.32148000      2.29171000
  C      4.53445000      2.12542000      0.13247700
  O      5.66967000      2.74782000      0.19244100
  C     -3.03890000     -0.92196900     -4.32605000
  O     -3.86318000     -1.24294000     -5.31823000
  C      3.33579000     -2.54071000     -3.52334000
  O      4.11168000     -3.25934000     -4.33273000
  C      0.12946100      4.45148000     -1.85364000
  O     -0.09657000      5.57924000     -2.44912000
  C     -2.70748000      4.24360000      1.92945000
  O     -3.42892000      5.27625000      2.47369000
  C     -0.04251310      5.08325000      1.57200000
  O      0.00927087      6.43959000      1.85977000
  C     -2.92913000      4.20399000     -1.44716000
  O     -3.66584000      5.29768000     -1.69212000
  C     -0.76152900     -4.23292000      3.57570000
  O     -1.05690000     -5.30534000      4.27808000
  C      2.40215000      4.19129000     -0.43034400
  O      3.20164000      5.21228000     -0.43148300

