#B3LYP/6-31+G(d) OPT FREQ

110, Energy = -12112.28016549 au

0 1
 Ni      3.90795000     -1.49872000     -1.41351000
 Ni      0.25518200     -1.64109000     -1.53820000
 Ni      3.94429000     -2.11645000      1.06472000
 Ni     -3.88847000      0.68542700     -1.11142000
 Ni     -1.71865000     -0.16716100     -2.82113000
 Ni     -1.70970000     -3.43259000     -0.62206900
 Ni      0.19756800     -2.18555000      0.96939900
 Ni     -3.80407000      0.14349800      1.38162000
 Ni      2.11858000     -0.01346040     -2.61009000
 Ni      1.90897000      2.09946000      0.64462400
 Ni      1.98896000     -0.56842100      0.06060480
 Ni      3.86668000      1.22100000     -0.80108500
 Ni     -0.05490700      3.72380000     -0.45408100
 Ni      0.08952340     -0.27573900      4.18245000
 Ni      0.04164540      0.32248700      1.52972000
 Ni      1.89985000      2.72784000     -1.93257000
 Ni     -1.92555000      2.39918000     -2.28189000
 Ni      2.28271000     -2.48680000     -3.00574000
 Ni      1.82842000      1.49939000      3.22537000
 Ni      2.35355000     -3.43684000     -0.55374300
 Ni     -0.15779200      3.12531000      2.13944000
 Ni      0.09520280      0.88979900     -0.98965400
 Ni      0.29876400     -1.13300000     -4.18579000
 Ni      0.49504300     -4.13825000     -2.10556000
 Ni     -1.99116000      1.34144000      3.05102000
 Ni     -1.76717000     -1.32550000      2.50740000
 Ni      3.86519000      0.54540100      1.57743000
 Ni      2.21266000     -3.58216000      1.92668000
 Ni     -3.55818000     -1.83048000     -1.55338000
 Ni     -1.89985000      1.79797000      0.48871200
 Ni     -3.57772000     -2.35673000      0.83551000
 Ni     -1.62399000     -3.85127000      1.85488000
 Ni      0.07758410      1.51388000     -3.60410000
 Ni     -1.71561000     -0.74426400     -0.07730210
 Ni      0.45467700     -4.71177000      0.36907100
 Ni      0.11262900     -2.69133000      3.55462000
 Ni     -1.39642000     -2.59895000     -3.23474000
 Ni      1.96985000     -1.07925000      2.64868000
  C      3.19308000      2.12379000     -3.29754000
  O      4.03936000      2.68450000     -4.16055000
  C      3.74161000     -3.24950000     -1.86148000
  O      4.67338000     -4.06084000     -2.18315000
  C      2.71966000     -1.10869000     -4.10405000
  O      3.51516000     -0.97912400     -5.09471000
  C     -3.69084000     -3.43472000     -0.63371500
  O     -4.52327000     -4.39754000     -0.73408100
  C     -1.38164000     -5.06975000      0.52744800
  O     -1.80775000     -6.26253000      0.46069600
  C      5.69807000     -0.37201500      0.82289300
  O      6.71082000     -1.02336000      1.36384000
  C      3.13523000     -2.53247000      3.73039000
  O      3.89720000     -2.81988000      4.78186000
  C      3.54239000     -4.06823000      0.65810000
  O      4.27982000     -5.08037000      0.94885600
  C     -3.17632000     -3.11607000      2.62733000
  O     -4.12046000     -4.41219000      3.65048000
  C     -1.21530000     -2.37485000      4.96934000
  O     -1.48846000     -2.94160000      6.13035000
  C      0.46014900      0.49623500     -5.21159000
  O      0.64445700      0.79242900     -6.55003000
  C     -2.86944000      4.30526000      0.38284300
  O     -3.74517000      5.25041000      0.40923300
  C     -2.58433000      1.30173000     -4.10864000
  O     -3.21557000      1.44488000     -5.20704000
  C     -1.36069000     -1.69878000     -4.68380000
  O     -1.85152000     -1.93254000     -5.81765000
  C     -0.17070200      5.00595000      1.64068000
  O     -0.19255500      6.10801000      2.15809000
  C     -3.93748000     -0.63024100      3.27464000
  O     -4.84728000     -0.82458000      4.24272000
  C     -4.48727000      1.86583000      1.50800000
  O     -5.62407000      2.36859000      1.93618000
  C      0.74378400      2.78179000      4.17915000
  O      0.97963100      3.58969000      5.23886000
  C      5.09019000      0.23540200     -2.21980000
  O      6.40531000      0.16631900     -2.45990000
  C     -2.26239000      3.32498000      3.42199000
  O     -2.88589000      4.08889000      4.23629000
  C     -1.53708000      0.60858900      5.04664000
  O     -1.98412000      0.81449700      6.29292000
  C      0.46931400     -4.61240000      2.61459000
  O      0.65268900     -5.62796000      3.40924000
  C     -2.72554000      3.93399000     -2.75950000
  O     -3.34324000      4.74668000     -3.52265000
  C      0.38871200      3.47411000     -3.68412000
  O      0.49185300      4.34393000     -4.70275000
  C     -4.16377000     -1.18733000     -3.35858000
  O     -5.24744000     -1.65249000     -3.92986000
  C      1.86860000     -5.17265000     -0.61014800
  O      2.11675000     -6.27152000     -1.19942000
  C     -1.75659000     -4.94119000     -2.20084000
  O     -2.29249000     -5.60084000     -3.24024000
  C     -5.17263000      1.88510000     -1.66699000
  O     -6.41954000      2.13840000     -2.18820000
  C     -4.73670000     -1.02923000      0.30296300
  O     -6.01949000     -1.16534000      0.48200700
  C      3.85071000      1.09768000      3.67106000
  O      4.87168000      1.51191000      4.43525000
  C      4.86786000      2.47317000      0.43053300
  O      6.12726000      2.90662000      0.41047500
  C      2.65249000      4.20998000     -0.97468400
  O      3.36138000      5.25962000     -1.29543000
  C     -0.06655520      5.17968000     -1.49874000
  O     -0.18451300      6.51068000     -1.55926000
  C      1.83811000      0.00524064      5.19299000
  O      2.14650000      0.02991030      6.47981000
  C      0.78706100     -3.32332000     -3.93506000
  O      1.06236000     -4.07856000     -4.96491000
  C      2.56149000      3.60930000      1.99685000
  O      3.35626000      4.58752000      2.30226000

