#B3LYP/6-31+G(d) OPT FREQ

110, Energy = -11893.24682082 au

0 1
 Ni      0.87786300     -3.48060000     -2.28376000
 Ni     -0.95907800     -0.27224800     -1.73325000
 Ni      1.03028000     -3.90149000      0.19605900
 Ni     -0.54594600      4.22124000     -1.11108000
 Ni     -0.83173600      2.18577000     -2.74437000
 Ni     -2.91035000      0.46997100     -0.19154900
 Ni     -0.79871000     -0.64948000      0.79533600
 Ni     -0.38548700      3.83529000      1.40604000
 Ni      0.98786800     -1.00475000     -3.32397000
 Ni      3.41471000     -0.12869500     -0.70856000
 Ni      1.12455000     -1.41804000     -0.73577200
 Ni      3.07636000     -2.17426000     -2.29506000
 Ni      3.51560000      2.29945000     -1.70712000
 Ni      1.61907000      0.24999600      3.41985000
 Ni      1.42917000      0.61214600      0.83174600
 Ni      3.21852000      0.27408000     -3.26937000
 Ni      1.45959000      3.41236000     -2.67506000
 Ni     -1.31087000     -2.25894000     -3.35732000
 Ni      3.57734000     -0.49855800      1.85482000
 Ni     -1.09794000     -2.67804000     -0.75564600
 Ni      3.71337000      1.90686000      0.90716300
 Ni      1.27107000      0.99093000     -1.69576000
 Ni     -1.15185000      0.10229100     -4.30544000
 Ni     -3.24394000     -1.56608000     -1.81615000
 Ni      1.75426000      2.67158000      2.45574000
 Ni     -0.48629700      1.37023000      2.37868000
 Ni      3.22913000     -2.59570000      0.22360000
 Ni     -0.97516600     -3.10819000      1.78292000
 Ni     -2.75417000      2.93655000     -1.14347000
 Ni      1.59721000      3.07382000     -0.12375800
 Ni     -2.63609000      2.52812000      1.41213000
 Ni     -2.79974000      0.07741360      2.38017000
 Ni      1.11772000      1.41556000     -4.25615000
 Ni     -0.65380900      1.75959000     -0.16274500
 Ni     -3.08322000     -1.97411000      0.77370500
 Ni     -0.66355000     -1.07037000      3.37153000
 Ni     -3.04968000      0.83304000     -2.78707000
 Ni      1.30183000     -1.80948000      1.80346000
  C      4.97895000      1.15805000     -0.55221300
  O      6.16789000      1.55341000     -0.85737000
  C     -4.89144000      0.31581300      0.91918800
  O     -6.18268000      0.42484300      1.11244000
  C      1.77081000      2.33282000      4.71473000
  O      2.34796000      3.05425000      5.60665000
  C     -4.98562000      2.43678000     -0.82906000
  O     -5.82083000      3.32169000     -1.24771000
  C      2.78270000      3.91238000      1.36312000
  O      3.46144000      4.95671000      1.69774000
  C      4.70521000     -1.50370000     -1.36375000
  O      5.86676000     -1.86827000     -1.79153000
  C     -3.07459000     -0.19608700      4.39197000
  O     -3.86763000     -0.24333200      5.34608000
  C     -2.76857000     -4.47280000      0.43512600
  O     -3.30282000     -5.57260000      0.69654100
  C      0.08205130     -0.42621800      5.10355000
  O      0.08630040     -0.65615200      6.39718000
  C     -1.43036000     -3.31467000      3.90818000
  O     -1.76832000     -4.06978000      4.87779000
  C      0.23355500      4.97635000      2.89003000
  O      0.08286150      6.10421000      3.53147000
  C     -1.22734000      2.23932000      4.31011000
  O     -1.48684000      2.81114000      5.37127000
  C      2.66686000     -4.14211000     -1.80219000
  O      3.32540000     -5.02811000     -2.47221000
  C     -0.29991900     -5.10697000     -1.65442000
  O     -0.18457600     -6.39381000     -1.86970000
  C      2.84540000     -1.42336000     -4.26832000
  O      3.53650000     -1.84597000     -5.27178000
  C      3.05655000     -4.62220000      1.48053000
  O      4.04931000     -5.43313000      1.36010000
  C     -4.84029000     -0.23713400     -2.45039000
  O     -5.81282000     -0.07489200     -3.29510000
  C     -4.08868000     -2.26949000      2.51550000
  O     -5.10425000     -2.88968000      2.99432000
  C     -1.92003000      4.07625000     -2.55363000
  O     -2.35527000      5.17453000     -3.07691000
  C     -2.65040000     -1.07075000     -4.54048000
  O     -3.14157000     -1.34816000     -5.70861000
  C      3.35061000     -0.44243400      4.07336000
  O      3.99547000     -0.53927100      5.23597000
  C      3.45272000      2.41740000     -3.76885000
  O      4.29917000      2.51181000     -4.73200000
  C      0.42639800      3.32276000     -4.40912000
  O      0.72899000      4.30389000     -5.18924000
  C     -4.15672000      2.47481000      2.91647000
  O     -5.01862000      3.21860000      3.47683000
  C      2.90754000      4.34017000     -1.56422000
  O      3.87492000      5.04985000     -2.03765000
  C     -2.58224000     -3.65137000     -2.47522000
  O     -3.30810000     -4.65626000     -3.26418000
  C     -4.94545000     -2.44932000     -1.05249000
  O     -6.17922000     -3.02923000     -1.19399000
  C      0.48046300     -2.96480000     -4.59055000
  O      0.46992900     -3.88621000     -5.54102000
  C      1.29352000      5.26622000     -0.63546100
  O      0.99983800      6.53242000     -0.78477700
  C      4.71197000      1.52404000      2.99141000
  O      5.86880000      2.05261000      3.18669000
  C     -2.28574000      4.44612000      0.70785200
  O     -2.93087000      5.54515000      0.91096900
  C      0.26673100     -4.72307000      1.83570000
  O      0.35519000     -6.13371000      2.21769000
  C      1.82168000     -3.02428000      3.63152000
  O      2.26572000     -3.72116000      4.40603000
  C      5.25513000     -1.71532000      1.24446000
  O      6.30160000     -2.02755000      1.95046000
  C     -2.03678000      2.15075000     -4.34597000
  O     -2.64767000      2.65480000     -5.35546000
  C      0.70512000     -0.03930310     -5.50106000
  O      0.93195400      0.05414860     -6.76514000

