#B3LYP/6-31+G(d) OPT FREQ

110, Energy = -11892.54722322 au

0 1
 Ni      3.51994000     -0.81934200     -1.89856000
 Ni     -0.10143700     -1.45718000     -1.45026000
 Ni      3.88551000     -0.85230400      0.65635800
 Ni     -4.22243000      0.44175200     -0.97260500
 Ni     -2.29910000     -0.51053300     -2.48353000
 Ni     -1.50104000     -3.04331000      0.02209380
 Ni      0.21964000     -1.45247000      1.08823000
 Ni     -3.85213000      0.42843300      1.56979000
 Ni      1.30022000      0.12569500     -2.93675000
 Ni      1.16519000      2.64279000     -0.34940200
 Ni      1.63172000      0.11512200     -0.37958400
 Ni      3.02308000      1.74086000     -1.88684000
 Ni     -1.03036000      3.61254000     -1.38048000
 Ni      0.10032600      1.09664000      3.71009000
 Ni     -0.22982500      1.06611000      1.13105000
 Ni      0.85445200      2.67293000     -2.90861000
 Ni     -2.76259000      2.01763000     -2.45985000
 Ni      1.76126000     -2.43198000     -2.98976000
 Ni      1.50065000      2.67734000      2.23459000
 Ni      2.08375000     -2.39906000     -0.43157400
 Ni     -0.69776400      3.62161000      1.19498000
 Ni     -0.55026500      1.06212000     -1.40599000
 Ni     -0.43380800     -1.47643000     -4.03088000
 Ni      0.37342100     -4.01225000     -1.52108000
 Ni     -2.10460000      2.03530000      2.67610000
 Ni     -1.63267000     -0.51853200      2.60813000
 Ni      3.37504000      1.70175000      0.68439000
 Ni      2.43208000     -2.40662000      2.13638000
 Ni     -3.70706000     -2.10058000     -0.99384100
 Ni     -2.42136000      2.00300000      0.11225000
 Ni     -3.36539000     -2.11554000      1.55571000
 Ni     -1.16612000     -3.06681000      2.59747000
 Ni     -0.89833600      1.06471000     -3.98823000
 Ni     -1.96391000     -0.50568500      0.06103060
 Ni      0.67316200     -4.00523000      1.06167000
 Ni      0.56148500     -1.46721000      3.66404000
 Ni     -1.83359000     -3.06942000     -2.54540000
 Ni      1.95215000      0.12825700      2.15038000
  C     -2.62807000     -2.35656000      3.79594000
  O     -3.26401000     -3.09055000      4.65012000
  C      5.00980000      0.40906200      1.68886000
  O      6.35541000      0.16449200      1.98205000
  C      2.82865000     -1.30316000     -4.35115000
  O      3.53416000     -1.96847000     -5.35415000
  C      2.72308000     -4.54470000      1.15938000
  O      2.91790000     -5.88838000      1.61088000
  C      3.51155000      2.33917000      2.69680000
  O      4.45668000      2.94857000      3.41159000
  C     -2.53208000     -1.59624000     -4.22111000
  O     -3.13413000     -1.95386000     -5.29822000
  C     -0.00683838     -3.50211000     -3.76376000
  O     -0.01292630     -4.27660000     -4.79983000
  C      2.47783000     -0.07731160      4.36539000
  O      3.12568000     -0.09646620      5.49368000
  C     -0.38690600      3.09239000     -4.49282000
  O     -0.31464800      3.94474000     -5.50237000
  C     -3.41707000     -4.15001000      0.42068100
  O     -4.43430000     -4.78552000      0.87088500
  C     -1.89008000      3.43859000      4.10341000
  O     -2.53595000      4.08312000      5.02183000
  C      5.39025000      0.02424930     -2.19454000
  O      6.46893000     -0.38956500     -2.83657000
  C     -2.73027000      4.05240000     -2.39317000
  O     -3.37061000      5.05098000     -3.00121000
  C     -3.37851000      0.21012200      3.79688000
  O     -4.31686000      0.24815300      4.72858000
  C      0.48027400      4.80272000      2.29899000
  O      0.37567600      6.03026000      2.87287000
  C     -2.90884000      1.18631000     -4.29188000
  O     -3.65684000      1.57483000     -5.26300000
  C     -4.85078000     -0.74057800     -2.42214000
  O     -5.97566000     -1.38754000     -2.66438000
  C     -4.29156000      2.35420000      1.45901000
  O     -5.44785000      2.79736000      1.85925000
  C      0.26618900      5.10773000     -1.07987000
  O      0.13745600      6.36428000     -1.37985000
  C     -5.22148000     -1.25515000      0.84551900
  O     -6.43475000     -1.32841000      1.35872000
  C     -3.56364000     -4.26445000     -1.45484000
  O     -3.94029000     -5.04601000     -2.42649000
  C      0.98664400      2.73957000      4.34404000
  O      1.21981000      3.35446000      5.53312000
  C      4.61919000      2.17917000     -0.75544100
  O      5.82588000      2.76991000     -0.93128900
  C      4.30974000     -2.76428000     -0.21888400
  O      5.46163000     -3.40615000     -0.17816800
  C     -2.56948000      4.29370000      0.70159700
  O     -3.22595000      5.43620000      0.91022600
  C      0.31282700      0.06254160     -5.18529000
  O      0.26204600      0.08055730     -6.46970000
  C     -4.61948000      2.58228000     -1.56194000
  O     -5.98475000      2.56708000     -1.91232000
  C     -0.94599700     -5.11332000      1.80961000
  O     -1.21660000     -6.19554000      2.53233000
  C      2.79442000      1.31714000     -3.93827000
  O      3.52129000      1.63887000     -4.96555000
  C     -0.97063600     -5.65333000     -0.33050000
  O     -0.68096400     -6.75378000     -1.00161000
  C      4.05163000     -2.13278000      3.33234000
  O      4.82531000     -2.98085000      3.98298000
  C      2.63332000      4.17002000      0.64564800
  O      3.34277000      5.30682000      0.81092300
  C      2.49430000      3.69923000     -2.36616000
  O      3.08877000      4.66275000     -2.98203000
  C      2.44906000     -4.01228000     -1.85602000
  O      3.09295000     -4.98738000     -2.39274000
  C     -0.85197800     -0.35106700      5.27204000
  O     -0.89812500     -0.35806700      6.56341000
  C      0.79487000     -3.79614000      4.22017000
  O      0.87864800     -4.13813000      5.45565000

