#B3LYP/6-31+G(d) OPT FREQ

110, Energy = -12601.52125765 au

0 1
 Ni      2.30799000     -2.57988000     -1.73195000
 Ni     -0.71870200     -0.41632300     -1.57778000
 Ni      2.07381000     -3.19541000      0.83435300
 Ni     -2.29735000      3.75078000     -1.07786000
 Ni     -1.42918000      1.98855000     -2.85201000
 Ni     -3.14559000     -0.56064400     -0.57461300
 Ni     -0.92436800     -0.84661900      0.96657200
 Ni     -2.50354000      3.29592000      1.54804000
 Ni      1.58230000     -0.27136400     -2.73487000
 Ni      3.14272000      1.51346000      0.29703900
 Ni      1.42634000     -0.68833200     -0.13960600
 Ni      3.85922000     -0.41180900     -1.23797000
 Ni      2.37351000      3.72083000     -0.70490900
 Ni      0.43351200      0.78532000      4.08681000
 Ni      0.57291900      1.20632000      1.41085000
 Ni      3.19102000      1.86416000     -2.20094000
 Ni      0.21387600      3.98882000     -2.19969000
 Ni      0.14229000     -2.34336000     -3.27690000
 Ni      2.74229000      0.94200300      2.85726000
 Ni     -0.03831370     -2.86978000     -0.61484100
 Ni      2.06853000      3.27957000      1.93525000
 Ni      0.77090300      1.64473000     -1.12613000
 Ni     -0.59475300     -0.06021490     -4.25083000
 Ni     -2.20552000     -2.50658000     -2.06529000
 Ni     -0.31340400      3.12523000      2.98557000
 Ni     -1.85784000      1.08704000      2.62980000
 Ni      3.58963000     -0.96611600      1.29739000
 Ni     -0.23495800     -3.31891000      1.95752000
 Ni     -3.78587000      1.72927000     -1.52343000
 Ni     -0.09960590      3.66630000      0.45338500
 Ni     -3.93525000      1.33714000      1.15048000
 Ni     -3.36038000     -1.08813000      2.15008000
 Ni      1.02610000      2.22553000     -3.67604000
 Ni     -1.56276000      1.48566000     -0.03709750
 Ni     -2.43373000     -2.95251000      0.54504000
 Ni     -1.05887000     -1.33798000      3.58261000
 Ni     -2.91509000     -0.11883800     -3.16669000
 Ni      1.24018000     -1.14993000      2.43416000
  C      4.14483000     -2.85756000      1.49643000
  O      5.22167000     -3.56525000      1.86513000
  C      2.59992000      3.62899000     -2.68231000
  O      3.37346000      4.44126000     -3.33720000
  C      0.41764400     -4.99556000      0.28988000
  O      0.47233200     -6.27961000      0.17574000
  C     -0.26865600      3.55090000     -3.88407000
  O     -0.39716100      4.45731000     -4.79175000
  C      1.68931000     -3.99902000      2.70002000
  O      2.07914000     -5.07518000      3.41177000
  C     -2.05104000     -4.37100000      2.03697000
  O     -2.56212000     -5.49832000      2.53842000
  C      3.60601000      3.43233000      0.91874400
  O      4.65718000      4.10863000      1.25982000
  C      3.71094000      0.49680500     -3.60539000
  O      4.56007000      0.52081900     -4.64750000
  C     -5.28008000     -0.20204100      0.75446500
  O     -6.59363000     -0.00247665      0.91448800
  C      0.19282100     -4.27698000     -2.98893000
  O      0.21580500     -5.35140000     -3.72289000
  C     -4.52312000      0.21324100     -2.26260000
  O     -5.70284000      0.04970430     -2.76500000
  C     -4.28124000     -2.59855000     -0.36038600
  O     -5.48725000     -3.15933000     -0.52308700
  C     -3.07261000      2.88395000     -2.78623000
  O     -3.72357000      3.49143000     -3.73132000
  C     -4.26826000     -2.50023000      3.01297000
  O     -5.28969000     -2.88521000      3.67604000
  C     -3.63035000      2.06391000      2.80468000
  O     -4.47363000      2.41360000      3.71972000
  C      1.15575000      0.92463000     -5.29236000
  O      1.46870000      1.26805000     -6.54668000
  C     -2.36940000     -0.20270000      4.52058000
  O     -3.00986000     -0.16285500      5.64870000
  C      2.62691000     -2.30263000     -3.76458000
  O      3.40743000     -2.83630000     -4.70499000
  C     -2.24681000     -4.42432000     -1.15538000
  O     -2.83785000     -5.58596000     -1.46839000
  C      0.44725900      4.80720000      2.41478000
  O      1.12090000      5.69119000      3.09286000
  C      5.00765000     -1.94471000     -1.09700000
  O      6.23301000     -2.11425000     -1.50542000
  C     -2.22602000      0.66277500     -4.71298000
  O     -2.72532000      0.88896400     -5.88009000
  C      4.67332000      1.43774000     -0.96452000
  O      5.88091000      1.91862000     -1.01442000
  C     -0.62706200     -3.20925000      4.34504000
  O     -0.70594600     -3.84452000      5.47150000
  C     -1.00989000      2.17668000      4.90561000
  O     -1.16062000      3.09893000      5.87857000
  C      0.67852400      5.32560000     -0.68704900
  O      1.47392000      6.35131000     -0.60092800
  C     -3.14699000     -2.26724000     -3.85532000
  O     -3.89879000     -2.97594000     -4.69071000
  C      2.72292000      2.45322000      4.13267000
  O      3.50551000      2.86688000      5.12952000
  C     -0.86522800      5.43521000     -1.22603000
  O     -1.66570000      6.41313000     -1.51054000
  C      4.88388000      0.47535200      1.93199000
  O      6.13160000      0.53409200      2.43320000
  C      0.68451400     -0.42831500      5.55576000
  O      0.86105800     -0.40232300      6.83457000
  C     -0.10289400     -1.66976000     -4.99342000
  O     -0.06696940     -2.13409000     -6.19300000
  C     -4.16035000      3.05592000      0.02336410
  O     -5.25782000      3.74568000     -0.03247620
  C     -1.15887000      4.90887000      2.06766000
  O     -2.02921000      5.83916000      2.32651000
  C      2.97111000     -1.32636000      3.76536000
  O      3.52976000     -1.82899000      4.85664000
  C      2.86898000     -4.28670000     -0.94490700
  O      3.69276000     -5.29065000     -1.27073000

