#B3LYP/6-31+G(d) OPT FREQ

110, Energy = -12741.64350117 au

0 1
 Ni      0.37052800     -3.63933000     -2.56926000
 Ni     -1.08490000     -0.43870400     -1.56496000
 Ni      0.70142400     -4.36087000     -0.15922900
 Ni     -0.11915300      3.95619000     -0.52260000
 Ni     -0.90938200      2.26988000     -2.54809000
 Ni     -2.91655000      0.32209900      0.31059500
 Ni     -0.68418800     -1.07071000      0.91993500
 Ni      0.15082600      3.38406000      1.98638000
 Ni      0.68694600     -1.27962000     -3.78240000
 Ni      3.71444000     -0.66650300     -0.94841000
 Ni      1.00362000     -1.80437000     -0.92892100
 Ni      2.77436000     -2.46148000     -2.71691000
 Ni      3.51659000      1.83971000     -1.86518000
 Ni      2.14112000     -0.55697200      3.43597000
 Ni      1.67374000      0.02062500      0.79557000
 Ni      3.06297000     -0.00258527     -3.52596000
 Ni      1.58501000      3.11485000     -2.44046000
 Ni     -1.87723000     -2.32738000     -3.32848000
 Ni      3.79090000     -1.36292000      1.42740000
 Ni     -1.64645000     -3.19487000     -0.84539800
 Ni      4.03457000      1.20520000      0.70138000
 Ni      1.24996000      0.64634100     -1.69240000
 Ni     -1.57170000      0.16586900     -4.09591000
 Ni     -3.51404000     -1.49779000     -1.50040000
 Ni      2.34284000      1.87493000      2.58812000
 Ni     -0.03034600      0.79497800      2.72359000
 Ni      3.05633000     -3.20380000     -0.25477400
 Ni     -0.94697200     -3.61568000      1.71546000
 Ni     -2.61334000      2.89072000     -0.34745100
 Ni      1.89233000      2.50725000      0.07576880
 Ni     -2.29297000      2.24165000      2.16786000
 Ni     -2.47024000     -0.30386600      2.87639000
 Ni      0.77730100      1.48760000     -4.22122000
 Ni     -0.44905000      1.42865000      0.16096500
 Ni     -3.09656000     -2.17957000      1.13936000
 Ni     -0.20791000     -1.69268000      3.48139000
 Ni     -3.17865000      0.98526800     -2.38893000
 Ni      1.45970000     -2.44557000      1.54295000
  C      4.57675000      0.26493200     -2.39639000
  O      5.84368000      0.32927600     -2.62596000
  C     -2.90244000     -1.08072000     -4.19973000
  O     -3.64536000     -1.31322000     -5.22709000
  C      1.33815000     -0.32462700      5.17885000
  O      1.88131000     -0.41639600      6.36594000
  C      4.39326000      3.13789000      0.20428600
  O      5.51622000      3.77257000      0.53836300
  C     -2.22161000      1.92354000     -3.91216000
  O     -2.63799000      2.68438000     -4.87088000
  C     -3.14566000     -3.25397000     -2.31842000
  O     -4.07450000     -4.08228000     -2.69421000
  C     -4.80564000     -0.23952000     -2.05011000
  O     -6.07508000     -0.30490100     -2.55971000
  C      3.98952000      1.03321000      3.41768000
  O      4.84091000      1.46774000      4.35791000
  C     -2.77314000      2.06470000      4.09945000
  O     -3.53673000      2.75503000      4.88594000
  C      3.38570000      3.85253000     -2.12784000
  O      4.19796000      4.78778000     -2.69131000
  C     -4.81946000     -1.88739000      0.37345500
  O     -6.02507000     -2.44067000      0.62901600
  C     -1.04531000      4.85467000      2.03503000
  O     -1.13839000      5.94916000      2.73593000
  C     -1.73663000      4.57827000     -1.63005000
  O     -2.15195000      5.81230000     -2.00582000
  C     -4.59193000      1.29393000      1.07051000
  O     -5.86781000      1.37692000      1.19256000
  C      2.69054000      1.76044000     -4.28398000
  O      3.27488000      2.13272000     -5.37125000
  C      0.31947200     -5.27418000      1.68892000
  O      0.25570000     -6.59575000      1.96294000
  C      2.56468000     -1.59245000     -4.41812000
  O      3.10958000     -2.09929000     -5.47618000
  C      0.44998800      2.51024000      4.11440000
  O      0.40723800      2.94038000      5.37891000
  C      0.23096600      3.29592000     -3.90684000
  O      0.12315700      4.34703000     -4.63379000
  C      1.44660000      5.05300000     -0.39613000
  O      1.78109000      6.32470000     -0.39327100
  C      2.20445000     -4.30217000     -1.88976000
  O      2.67947000     -5.39713000     -2.40079000
  C      5.25101000     -0.30149000      0.68907400
  O      6.51309000     -0.38265900      0.89884800
  C     -4.26946000     -0.90054800      3.07966000
  O     -5.11962000     -1.01135000      4.06398000
  C     -2.02609000     -3.02732000      3.46472000
  O     -2.55347000     -3.85500000      4.41571000
  C     -2.61052000     -4.01918000      0.77116600
  O     -3.32307000     -5.07922000      0.92426100
  C      4.28467000     -2.40000000     -1.54343000
  O      5.51168000     -2.76872000     -1.74500000
  C     -0.72870200     -4.77441000     -1.43028000
  O     -1.25019000     -5.87902000     -1.83023000
  C      0.95732300     -3.25535000      3.77939000
  O      1.30872000     -4.13239000      4.71656000
  C      2.90456000     -4.37036000      1.59872000
  O      3.89913000     -5.24303000      1.62514000
  C     -0.31354700     -2.91169000     -4.20369000
  O     -0.25196500     -3.56752000     -5.32013000
  C     -1.33076000     -0.38858300      4.77433000
  O     -1.65880000     -0.40399700      6.07861000
  C      2.18743000      3.82210000      2.30022000
  O      2.83889000      4.90766000      2.85349000
  C      0.00163826     -0.00673491     -5.08506000
  O      0.02775470     -0.20560400     -6.37090000
  C      3.60117000     -2.14534000      3.36003000
  O      4.62008000     -2.58175000      4.13997000
  C     -4.05009000      2.77934000     -1.79396000
  O     -5.08391000      3.53900000     -2.21220000
  C     -3.28927000      3.83363000      1.26458000
  O     -4.16693000      4.81822000      1.55548000

