#B3LYP/6-31+G(d) OPT FREQ

110, Energy = -12345.67765357 au

0 1
 Ni     -0.79169600     -3.10434000     -2.97835000
 Ni     -0.36070300      0.48756300     -1.86318000
 Ni     -1.95488000     -3.70352000     -0.94410900
 Ni      2.34771000      3.43869000      0.49040600
 Ni      1.68957000      2.32222000     -1.95239000
 Ni     -2.01386000      2.34212000     -0.89140900
 Ni     -1.63715000     -0.04995510      0.31458900
 Ni      1.03595000      2.95603000      2.50448000
 Ni      1.27001000     -1.27857000     -3.23924000
 Ni      2.36789000     -2.61717000      0.45534400
 Ni     -0.06922520     -1.83769000     -0.76788100
 Ni      1.40185000     -3.72390000     -1.85467000
 Ni      4.26398000     -0.67099500      0.33114200
 Ni     -0.68344200     -1.20217000      3.79570000
 Ni      0.62007700     -0.64792500      1.44597000
 Ni      3.60008000     -1.76643000     -1.68696000
 Ni      3.92350000      1.55338000     -0.76970100
 Ni     -1.04926000     -0.86176900     -4.11375000
 Ni      0.99375900     -2.98015000      2.56531000
 Ni     -2.55614000     -1.32056000     -1.99419000
 Ni      2.96492000     -1.32314000      2.72442000
 Ni      1.89041000     -0.10863800     -0.73961100
 Ni      0.97434600      1.08035000     -4.13481000
 Ni     -2.68578000      1.17300000     -3.03671000
 Ni      1.36088000      0.49049300      3.79169000
 Ni     -1.00403000      1.17889000      2.65985000
 Ni      0.38182900     -4.22685000      0.26025400
 Ni     -3.76169000     -1.75275000      0.33506000
 Ni      0.04240230      4.03088000     -0.79430000
 Ni      2.62537000      1.10455000      1.54077000
 Ni     -1.37320000      3.60253000      1.54520000
 Ni     -3.35273000      1.69211000      1.49661000
 Ni      3.15316000      0.50570500     -3.01471000
 Ni      0.32186400      1.67291000      0.33419300
 Ni     -3.99715000      0.44856200     -0.70474400
 Ni     -3.10920000     -0.60211500      2.53435000
 Ni     -0.72719100      2.90212000     -3.03748000
 Ni     -1.38887000     -2.40775000      1.40241000
  C      1.79941000     -4.36035000      1.75161000
  O      2.47847000     -5.32639000      2.23855000
  C      4.22493000     -2.74292000      2.61685000
  O      5.19310000     -3.03994000      3.39931000
  C     -4.08815000      0.09815860     -3.71997000
  O     -4.97890000      0.22218700     -4.60688000
  C      3.04686000      2.28397000     -3.21128000
  O      3.63548000      3.19786000     -3.87385000
  C     -1.35295000     -5.14227000      0.79931300
  O     -1.42888000     -6.51387000      1.04815000
  C     -2.55794000      3.05351000     -3.20168000
  O     -3.24218000      3.97202000     -3.81903000
  C      3.17899000     -2.80922000     -3.56364000
  O      4.14367000     -3.30174000     -4.33442000
  C      4.23530000      3.70246000     -0.53358900
  O      5.27630000      4.52298000     -0.58406000
  C     -0.88354800      4.84063000      2.97320000
  O     -1.21601000      6.04735000      3.35407000
  C      0.66523000      2.71399000      4.40341000
  O      0.89309100      3.52777000      5.44531000
  C     -4.83377000     -1.09337000     -0.90434900
  O     -6.02665000     -1.38778000     -1.25096000
  C      5.16478000      0.95030300      1.40539000
  O      6.45828000      0.93857400      1.70728000
  C      3.17971000      3.03388000      2.32446000
  O      4.14677000      3.53749000      3.01429000
  C      3.43571000      0.33999700      4.15252000
  O      4.08280000      0.44522000      5.32584000
  C     -1.78723000      4.63987000     -0.57930600
  O     -2.43073000      5.83424000     -0.81353000
  C      4.65239000      0.11336700     -1.82920000
  O      5.86923000      0.21539000     -2.28720000
  C      2.48668000     -5.03369000     -0.58479600
  O      3.02406000     -6.15282000     -1.10896000
  C      1.08137000      5.08989000      0.96673600
  O      1.67751000      6.31653000      1.08678000
  C     -0.48871900     -4.67112000     -2.07445000
  O     -0.62716600     -5.85064000     -2.60271000
  C     -0.19018000      0.28319700      5.27785000
  O     -0.22204000      0.35268400      6.62810000
  C      2.28189000     -0.05821060     -4.64021000
  O      2.73824000     -0.31954800     -5.81508000
  C      4.46761000     -2.38249000     -0.24446500
  O      5.48152000     -3.15798000     -0.14224500
  C     -2.41124000     -2.45072000     -3.54958000
  O     -3.38411000     -2.92675000     -4.25307000
  C     -3.92505000     -3.82598000     -1.19863000
  O     -4.61794000     -4.92906000     -1.28328000
  C     -4.59755000      2.26658000     -1.06052000
  O     -5.73826000      2.81851000     -1.35784000
  C     -3.92290000     -2.96202000      1.91245000
  O     -4.89780000     -3.73450000      2.39115000
  C      0.90252100      4.66148000     -2.56104000
  O      1.21592000      5.86668000     -2.98800000
  C      0.20786600      2.78681000     -4.81721000
  O      0.21702300      3.50481000     -5.99946000
  C      0.34806500     -2.57892000     -4.26770000
  O      0.80122400     -3.13224000     -5.33267000
  C     -2.49217000      1.89900000      3.68481000
  O     -2.88519000      2.43656000      4.87932000
  C     -2.91099000     -1.33185000      4.39873000
  O     -3.73693000     -1.57182000      5.50588000
  C     -0.98324000      0.40219700     -5.66724000
  O     -1.38711000      0.40095700     -6.93971000
  C     -4.48342000      0.30248500      1.71759000
  O     -5.69090000      0.37229200      2.15461000
  C     -3.75015000      3.62519000      1.39022000
  O     -4.78484000      4.41608000      1.87207000
  C     -1.17020000     -3.45407000      3.49088000
  O     -1.66993000     -4.46212000      4.26815000
  C      1.32904000     -2.15373000      4.61302000
  O      1.63431000     -2.86143000      5.72260000

