#B3LYP/6-31+G(d) OPT FREQ

110, Energy = -12332.44982969 au

0 1
 Ni      0.14318500     -3.52172000     -2.21152000
 Ni     -1.31443000     -0.28000100     -0.72616600
 Ni      1.20646000     -4.10345000      0.00136506
 Ni     -0.46906200      4.22904000      0.17421900
 Ni     -1.41889000      2.27157000     -1.38235000
 Ni     -2.64086000      0.28115900      1.47043000
 Ni     -0.31233700     -0.96442100      1.54970000
 Ni      0.47838700      3.43956000      2.45320000
 Ni     -0.05076640     -0.85706800     -2.91111000
 Ni      3.15403000     -0.25999700     -1.13532000
 Ni      0.95851200     -1.53602000     -0.62228000
 Ni      2.26494000     -2.19054000     -2.76842000
 Ni      2.98639000      2.28868000     -1.88911000
 Ni      2.90792000     -0.24035900      3.27895000
 Ni      1.84273000      0.29340300      0.99978700
 Ni      2.17319000      0.46126800     -3.48325000
 Ni      0.76316000      3.57286000     -1.93789000
 Ni     -2.27285000     -2.16461000     -2.38858000
 Ni      4.14379000     -0.83651500      1.17045000
 Ni     -1.22626000     -2.85725000     -0.06860850
 Ni      4.11504000      1.50660000      0.62837200
 Ni      0.86113800      0.98995300     -1.27522000
 Ni     -2.44500000      0.42333800     -3.15301000
 Ni     -3.60506000     -1.59232000     -0.25330600
 Ni      2.84284000      2.01555000      2.62709000
 Ni      0.59255700      0.86444900      3.44489000
 Ni      3.14716000     -2.89606000     -0.55991900
 Ni     -0.07882780     -3.57754000      2.35043000
 Ni     -2.84727000      2.92894000      0.84170600
 Ni      1.76265000      2.89643000      0.38487200
 Ni     -1.79407000      2.07715000      3.16020000
 Ni     -1.57508000     -0.33553900      3.81606000
 Ni     -0.10898600      1.71433000     -3.61297000
 Ni     -0.42806200      1.54623000      0.90027900
 Ni     -2.55425000     -2.29171000      2.12715000
 Ni      0.79354300     -1.68506000      3.86463000
 Ni     -3.69179000      0.90689300     -0.91683800
 Ni      2.00468000     -2.43423000      1.75500000
  C      3.91325000      3.76948000      0.01182680
  O      5.09477000      4.35119000      0.14705800
  C      0.60387400     -3.03876000     -4.24368000
  O      0.86167500     -3.74878000     -5.34611000
  C     -3.73284000      2.03563000      3.34758000
  O     -4.53171000      2.52083000      4.26304000
  C      0.24755200     -5.45155000      1.36575000
  O      0.50175200     -6.72739000      1.66797000
  C      1.86508000      0.04652890      4.75608000
  O      2.27576000      0.33786900      5.95491000
  C      1.24650000      4.61856000      0.98953600
  O      1.89352000      5.73935000      1.10335000
  C     -0.75890100      1.68873000      4.57082000
  O     -0.72394100      2.14040000      5.77366000
  C      2.10700000     -4.24941000     -1.65287000
  O      2.59385000     -5.38023000     -2.08094000
  C     -0.91539800      3.45588000     -3.76810000
  O     -1.18433000      4.31379000     -4.75538000
  C     -3.54335000      2.80578000     -1.96372000
  O     -4.34620000      3.69267000     -2.57771000
  C     -4.81567000     -0.27544300     -2.16658000
  O     -6.06573000     -0.17921700     -2.59341000
  C      4.40275000      1.17244000      2.57287000
  O      5.43702000      1.58509000      3.23656000
  C     -1.69767000     -3.68544000      3.57783000
  O     -2.21931000     -4.68670000      4.30947000
  C     -3.68741000      4.56705000      0.75660100
  O     -4.66870000      5.35155000      0.98603000
  C      4.61566000     -2.00300000     -2.08050000
  O      5.70993000     -2.67927000     -2.41360000
  C      0.02280560      0.16105200     -5.03915000
  O      0.00268504      0.01943720     -6.36680000
  C      1.78589000      3.37855000      4.01981000
  O      2.29637000      4.30907000      4.85801000
  C      3.25782000     -3.77377000      1.02414000
  O      4.15883000     -4.59156000      1.47162000
  C      3.29920000     -1.14898000     -4.36090000
  O      4.00202000     -1.40355000     -5.46277000
  C     -4.13132000     -3.07922000     -1.78268000
  O     -5.13693000     -3.76980000     -2.29458000
  C      4.24130000     -2.06994000      2.92441000
  O      5.18353000     -2.39117000      3.83491000
  C     -0.58775900     -1.36728000      5.38007000
  O     -0.77475900     -1.73123000      6.65850000
  C      2.64356000      4.59838000     -1.93494000
  O      2.95340000      5.66151000     -2.66437000
  C      4.53777000      1.10556000     -2.41792000
  O      5.77617000      1.35280000     -2.89467000
  C      1.37458000     -3.45810000      3.51682000
  O      1.93835000     -4.26420000      4.36045000
  C     -1.39070000     -4.83273000     -1.93711000
  O     -1.56831000     -5.96339000     -2.56029000
  C     -2.55554000     -4.22946000      0.64037300
  O     -3.08916000     -5.41548000      0.59448000
  C     -2.13042000     -1.91923000     -4.33631000
  O     -2.65299000     -2.55598000     -5.36647000
  C      5.72298000      0.37890000     -0.23946900
  O      6.91767000     -0.06201550      0.14642900
  C     -1.42083000      4.42460000      2.53200000
  O     -1.60632000      5.57790000      3.25005000
  C     -4.80962000      1.04259000      0.81209300
  O     -6.08742000      1.23791000      1.15946000
  C     -1.23380000      5.29406000     -1.72047000
  O     -1.43252000      6.56512000     -1.65890000
  C     -4.69707000     -2.10130000      1.45185000
  O     -5.90259000     -2.67341000      1.63432000
  C     -3.45086000     -0.96146100      3.59872000
  O     -4.42823000     -1.10445000      4.51868000
  C     -2.81181000      1.33856000     -4.74663000
  O     -3.64256000      1.46666000     -5.71251000
  C      1.95738000      2.28556000     -4.18709000
  O      2.47444000      2.83938000     -5.30455000

