#B3LYP/6-31+G(d) OPT FREQ

110, Energy = -12443.01015465 au

0 1
 Ni      1.05242000     -3.41738000     -2.46644000
 Ni     -1.24522000     -0.46270000     -1.34158000
 Ni      1.50065000     -3.82544000      0.26673700
 Ni     -1.40103000      4.03617000     -0.55103600
 Ni     -1.68188000      2.19190000     -2.34488000
 Ni     -3.33541000     -0.19570600      0.49299900
 Ni     -0.74844900     -0.98536500      1.14749000
 Ni     -0.95532700      3.46529000      2.08622000
 Ni      0.61145600     -0.87028600     -3.37501000
 Ni      3.37182000      0.37826200     -0.71995900
 Ni      1.11619000     -1.32449000     -0.63996800
 Ni      3.08941000     -1.70346000     -2.45548000
 Ni      2.89298000      2.87344000     -1.38364000
 Ni      1.86757000      0.29381300      3.57247000
 Ni      1.26968000      0.61993800      1.08516000
 Ni      2.65338000      0.84773400     -3.23833000
 Ni      0.50336600      3.72933000     -2.13320000
 Ni     -1.47459000     -2.32557000     -3.10323000
 Ni      3.68735000     -0.07684710      1.85410000
 Ni     -0.90176800     -2.90658000     -0.60031500
 Ni      3.39459000      2.29032000      1.16716000
 Ni      0.77890600      1.13926000     -1.38964000
 Ni     -1.79614000      0.00139674     -3.92295000
 Ni     -3.41158000     -2.02050000     -1.44363000
 Ni      1.62806000      2.60587000      2.77818000
 Ni     -0.59312100      0.96290800      2.93913000
 Ni      3.57293000     -2.18222000      0.02091590
 Ni     -0.33822700     -3.53621000      2.00540000
 Ni     -3.47208000      2.24355000     -0.42491100
 Ni      1.11122000      3.26952000      0.26199500
 Ni     -3.06757000      1.74839000      2.23249000
 Ni     -2.74473000     -0.72822300      2.92017000
 Ni      0.24598700      1.55144000     -3.96413000
 Ni     -1.07385000      1.47466000      0.37113600
 Ni     -2.83329000     -2.62349000      1.31894000
 Ni     -0.24945400     -1.60622000      3.78781000
 Ni     -3.73789000      0.32355700     -2.07503000
 Ni      1.60677000     -2.02717000      1.88892000
  C      0.96443800     -2.80870000      4.97749000
  O      0.92039500     -3.13898000      6.20545000
  C      4.37034000      2.47828000     -0.38892400
  O      5.54183000      2.97076000     -0.58073600
  C      3.27879000     -1.27665000      3.75659000
  O      4.05119000     -1.70957000      4.77967000
  C      3.19338000      1.82896000      3.19461000
  O      3.99960000      2.32851000      4.06402000
  C     -2.01331000      1.59624000      4.20773000
  O     -2.24931000      1.99216000      5.44537000
  C      0.36078200     -4.65914000     -3.69399000
  O      0.70675500     -5.74572000     -4.30296000
  C      2.97813000     -4.02874000     -1.04611000
  O      3.70604000     -5.18950000     -1.17763000
  C      1.48158000     -4.08051000      2.11815000
  O      2.06404000     -4.94773000      2.88114000
  C      2.08836000      4.47150000     -1.72829000
  O      2.60062000      5.59615000     -2.02166000
  C     -2.90200000      3.99998000      2.23367000
  O     -3.37500000      4.99767000      3.01331000
  C     -5.28354000     -1.54447000     -1.07351000
  O     -6.35252000     -2.20985000     -1.42757000
  C     -4.74898000      1.00643000     -0.61167000
  O     -6.02000000      1.14097000     -0.49767800
  C     -1.98160000     -3.94815000      3.18951000
  O     -2.27813000     -5.04270000      3.85181000
  C     -2.60638000     -4.07331000     -2.31799000
  O     -3.13273000     -5.02503000     -3.12517000
  C     -2.31463000     -1.51815000      4.96736000
  O     -3.03419000     -1.91396000      5.89149000
  C     -4.18532000     -1.60379000      2.02749000
  O     -5.39521000     -1.88709000      2.36733000
  C     -0.07958900      5.26144000      0.57253400
  O     -0.13341900      6.62217000      0.45743000
  C     -3.15090000     -4.25625000      0.15902800
  O     -3.88449000     -5.30397000      0.35222000
  C      4.38458000     -2.66999000      1.86603000
  O      5.47764000     -3.40972000      2.01592000
  C     -3.39965000     -0.90030600     -3.45645000
  O     -4.30616000     -1.12066000     -4.36659000
  C      4.53648000     -1.14597000     -1.21054000
  O      5.80849000     -1.10209000     -1.45888000
  C      1.65306000      3.17898000     -4.00839000
  O      1.89388000      3.83652000     -5.18333000
  C     -1.27931000      1.44701000     -4.94859000
  O     -1.61737000      1.84815000     -6.11811000
  C     -0.20986200     -5.11899000     -0.01310330
  O     -0.38086600     -6.40192000     -0.14073200
  C      4.58187000      1.58444000     -2.93640000
  O      5.37398000      1.81704000     -3.99007000
  C     -3.45800000      4.31961000     -0.48458300
  O     -4.34467000      5.26618000     -0.53822900
  C      0.30247700      3.94038000      3.71337000
  O      0.44345900      4.89159000      4.58006000
  C     -1.21215000      4.21608000     -2.47101000
  O     -1.65713000      5.08504000     -3.31137000
  C     -3.49242000      1.99022000     -2.77959000
  O     -4.20692000      2.68865000     -3.59064000
  C      0.72836100      0.75273000      5.05525000
  O      0.85993900      1.08835000      6.33973000
  C     -4.87300000      1.13624000      2.36504000
  O     -5.85268000      1.58511000      3.08604000
  C      2.55894000      3.90967000      1.36586000
  O      3.03063000      5.09622000      1.54754000
  C      3.12313000     -2.67577000     -4.16473000
  O      4.11017000     -3.23901000     -4.79721000
  C     -0.82265300     -1.75844000     -4.62593000
  O     -0.76410200     -2.28827000     -5.78944000
  C      5.36200000      0.81772800      1.22706000
  O      6.49796000      0.75811700      1.85257000
  C      1.68998000      0.03236910     -4.60071000
  O      1.92535000     -0.31828500     -5.82394000

