#B3LYP/6-31+G(d) OPT FREQ

110, Energy = -12681.09505856 au

0 1
 Ni     -0.35444800     -3.32690000     -2.37868000
 Ni     -1.50726000      0.12270300     -1.27319000
 Ni     -0.13831200     -4.10638000      0.14715000
 Ni     -0.17393400      4.43552000     -0.21764300
 Ni     -1.20337000      2.92361000     -2.22386000
 Ni     -3.18677000      0.97023900      0.51784300
 Ni     -1.22831000     -0.55895200      1.21889000
 Ni      0.06603460      3.73703000      2.19011000
 Ni      0.17082500     -0.85614800     -3.05308000
 Ni      2.90443000     -0.61063100     -0.64651200
 Ni      0.40125500     -1.48557000     -0.56446500
 Ni      2.18688000     -2.36931000     -2.42007000
 Ni      3.40707000      1.98395000     -1.38090000
 Ni      1.43499000     -0.44431600      3.70795000
 Ni      1.21485000      0.32807400      1.14817000
 Ni      2.59752000      0.13416300     -3.20768000
 Ni      1.45082000      3.55481000     -2.21758000
 Ni     -2.32494000     -1.69932000     -3.12050000
 Ni      3.27268000     -1.25233000      1.93582000
 Ni     -2.26964000     -2.68960000     -0.70984500
 Ni      3.73974000      1.20792000      1.16550000
 Ni      0.93088700      1.02222000     -1.34649000
 Ni     -1.78822000      0.71970400     -3.76704000
 Ni     -4.07134000     -0.80350700     -1.28472000
 Ni      1.95352000      2.14327000      2.88576000
 Ni     -0.51388600      1.24403000      3.10148000
 Ni      2.36691000     -3.13189000      0.16035800
 Ni     -1.85499000     -3.10644000      1.91690000
 Ni     -2.64469000      3.49083000     -0.22259300
 Ni      1.98106000      2.96753000      0.40771500
 Ni     -2.36206000      2.82848000      2.26873000
 Ni     -2.95706000      0.32679800      3.09886000
 Ni      0.57320800      1.77917000     -3.87440000
 Ni     -0.69175300      1.92698000      0.44130000
 Ni     -3.69822000     -1.52280000      1.42452000
 Ni     -1.13313000     -1.34098000      3.77975000
 Ni     -3.44194000      1.73081000     -2.08051000
 Ni      0.70713900     -2.21842000      1.99414000
  C      1.27499000     -3.77848000     -3.43812000
  O      1.65614000     -4.75693000     -4.31213000
  C     -4.87140000     -0.14261000      2.89962000
  O     -5.81226000     -0.23581500      3.84089000
  C      3.93450000     -2.94194000     -1.56441000
  O      4.97828000     -3.65423000     -2.02128000
  C      0.00129986      3.62837000      4.10043000
  O     -0.11140600      4.60919000      4.98831000
  C      1.90309000      2.91422000     -4.61790000
  O      2.19183000      3.35353000     -5.82303000
  C     -0.89031300     -4.83644000      1.87905000
  O     -1.17847000     -6.09634000      2.32615000
  C     -3.20836000      3.61342000     -2.01606000
  O     -3.99079000      4.53170000     -2.52427000
  C     -5.30929000     -0.77480400      0.24338900
  O     -6.64705000     -1.04802000      0.35956100
  C     -4.43274000      2.57463000      0.74943900
  O     -5.75019000      2.87953000      0.92257200
  C     -5.06073000      0.70984600     -2.28631000
  O     -6.27054000      0.90102300     -2.87920000
  C     -1.33043000      2.55452000     -4.06396000
  O     -1.81903000      3.34825000     -5.00823000
  C      2.95714000     -1.41779000     -4.33098000
  O      3.81037000     -1.70307000     -5.32382000
  C     -3.11970000      2.84640000      4.01908000
  O     -3.88748000      3.68410000      4.65680000
  C      3.06359000     -1.52111000      4.09093000
  O      3.81419000     -1.84062000      5.15740000
  C      1.27311000      4.67014000      0.98168200
  O      1.86625000      5.80894000      1.15384000
  C     -1.30323000     -4.55596000     -1.24734000
  O     -1.70074000     -5.74832000     -1.60934000
  C      4.69865000      0.25778500      2.68524000
  O      5.92782000      0.29742800      3.20955000
  C      1.79203000     -3.83874000      2.45552000
  O      2.05775000     -4.77425000      3.34952000
  C     -3.24061000     -0.35834900     -4.42454000
  O     -3.79578000     -0.49969700     -5.66750000
  C     -3.37248000     -3.30344000      0.71314700
  O     -4.20012000     -4.29242000      0.62196500
  C      4.12001000      2.75674000      0.16499200
  O      5.14395000      3.54032000      0.26025900
  C     -1.64086000      0.33925500      4.48111000
  O     -1.86077000      0.60481600      5.73241000
  C     -2.75740000     -2.25045000      3.36074000
  O     -3.46232000     -3.00891000      4.23998000
  C      4.19302000     -2.82657000      1.18964000
  O      5.25705000     -3.57288000      1.57472000
  C      3.37704000      3.40505000      2.80514000
  O      4.02576000      4.10831000      3.69943000
  C      0.25297900     -0.24986400     -5.02243000
  O      0.33514200     -0.73135600     -6.28148000
  C      4.07027000      1.41014000     -3.06081000
  O      5.17469000      1.77859000     -3.79154000
  C      0.16205500     -2.36228000      4.72261000
  O      0.16487400     -3.00103000      5.89381000
  C     -1.27337000     -3.07938000     -4.13232000
  O     -1.58506000     -3.91337000     -5.17485000
  C     -0.23489900      4.56525000     -2.10638000
  O     -0.54463000      5.66195000     -2.72129000
  C      1.36911000      1.18202000      4.76159000
  O      1.58101000      1.45260000      6.10175000
  C      1.65444000     -4.94008000     -0.46540000
  O      2.14556000     -6.20531000     -0.44229500
  C     -3.81407000     -2.44027000     -2.17550000
  O     -4.74542000     -3.16371000     -2.72551000
  C      4.91216000     -0.11083400     -0.52894000
  O      6.14439000     -0.48907500     -0.83817500
  C     -1.74362000      4.69559000      1.02355000
  O     -2.19542000      5.89287000      1.24729000
  C      3.06451000      4.50177000     -1.80749000
  O      3.64322000      5.50867000     -2.43623000

