#B3LYP/6-31+G(d) OPT FREQ

110, Energy = -12694.65885692 au

0 1
 Ni      0.71777300     -3.74868000     -1.99259000
 Ni     -1.52684000     -0.82701200     -0.93558100
 Ni      1.26906000     -4.27295000      0.40230500
 Ni     -1.71391000      3.79967000      0.12049800
 Ni     -1.85863000      1.68647000     -1.69810000
 Ni     -3.53497000     -0.43643300      0.91174900
 Ni     -0.93363500     -1.35264000      1.52256000
 Ni     -1.19936000      3.07652000      2.55733000
 Ni      0.26894200     -1.18150000     -2.85615000
 Ni      2.92031000     -0.08810780     -0.51293800
 Ni      0.84202900     -1.72381000     -0.33264100
 Ni      2.75984000     -2.18117000     -2.18182000
 Ni      2.62093000      2.50934000     -1.29813000
 Ni      1.67839000     -0.24613700      3.97279000
 Ni      1.07472000      0.24047700      1.36722000
 Ni      2.37603000      0.48646700     -3.01963000
 Ni      0.21275700      3.36063000     -1.86481000
 Ni     -1.81659000     -2.74775000     -2.68157000
 Ni      3.49258000     -0.73666400      2.01778000
 Ni     -1.32716000     -3.52041000     -0.20089900
 Ni      3.16908000      1.96757000      1.19710000
 Ni      0.50703300      0.77652100     -1.09199000
 Ni     -2.23344000     -0.35569700     -3.41323000
 Ni     -3.50359000     -2.49386000     -0.94034400
 Ni      1.34765000      2.25559000      3.20059000
 Ni     -0.71815400      0.68770700      3.60101000
 Ni      3.30036000     -2.68040000      0.19326800
 Ni     -0.56378700     -3.86419000      2.23764000
 Ni     -3.75932000      2.01051000      0.23100400
 Ni      0.79831100      2.86734000      0.63923600
 Ni     -3.07774000      1.56862000      2.54690000
 Ni     -2.58241000     -1.04927000      3.46821000
 Ni     -0.03418700      1.38074000     -3.62610000
 Ni     -1.27372000      1.13110000      0.76394000
 Ni     -2.94220000     -2.90752000      1.68961000
 Ni     -0.36759600     -1.89750000      4.08093000
 Ni     -3.94615000     -0.02182320     -1.48471000
 Ni      1.58075000     -2.51008000      2.32577000
  C     -2.93976000     -4.13083000     -2.01373000
  O     -3.44615000     -5.09011000     -2.70857000
  C     -2.78486000     -4.44029000      0.60239000
  O     -3.39447000     -5.54944000      0.84919000
  C      3.30750000      2.89361000      3.15724000
  O      4.14636000      3.64655000      3.86271000
  C     -1.73265000     -3.27013000      3.69003000
  O     -2.08933000     -4.15297000      4.57477000
  C      0.27383000     -3.73639000     -3.99339000
  O      0.50778500     -4.78052000     -4.75204000
  C     -3.89007000     -1.42163000     -2.77943000
  O     -4.90376000     -1.70530000     -3.54309000
  C      0.97358800      1.32505000      4.77776000
  O      1.07934000      1.78500000      5.98315000
  C      3.69787000     -0.13737200      4.03650000
  O      4.67346000     -0.20576600      4.96470000
  C     -4.74776000     -1.86575000      0.30672500
  O     -5.98832000     -2.18542000      0.46510400
  C     -2.09106000      1.95103000      4.10719000
  O     -2.54360000      2.33617000      5.25812000
  C     -4.58264000     -1.82764000      2.87328000
  O     -5.36797000     -2.03220000      3.96222000
  C      4.89959000      0.69367700      1.08014000
  O      6.20839000      0.95281400      1.26948000
  C     -3.43124000      3.70755000     -1.24192000
  O     -4.40924000      4.58466000     -1.56682000
  C     -0.71454700      1.22655000     -5.45612000
  O     -0.76249000      1.79704000     -6.59941000
  C     -1.41881000     -0.62186900      4.96179000
  O     -1.69211000     -0.53193100      6.22542000
  C      1.47921000     -2.08449000      4.33662000
  O      1.99630000     -2.73405000      5.33504000
  C     -1.16208000      3.73069000     -3.21482000
  O     -1.52811000      4.75382000     -3.97522000
  C      1.67460000     -0.76584700     -4.52648000
  O      1.98273000     -1.10118000     -5.83578000
  C      3.48412000     -2.75057000      2.06482000
  O      4.24697000     -3.54532000      2.75164000
  C     -4.82849000      1.18738000      1.86970000
  O     -5.96479000      1.41314000      2.42833000
  C      4.38397000      3.04015000     -0.57397600
  O      5.39094000      3.82536000     -0.89266100
  C      2.35831000      2.26411000     -3.95999000
  O      3.02940000      2.77904000     -4.98643000
  C      1.86553000      4.50955000     -2.15296000
  O      2.25025000      5.59994000     -2.79452000
  C      0.31048900      4.14752000      3.49662000
  O      0.32315400      5.18888000      4.34164000
  C      4.32934000      0.32920500     -2.43361000
  O      5.53321000      0.40405700     -2.94651000
  C      2.06308000      4.30980000      0.83029100
  O      2.39981000      5.56362000      1.07899000
  C     -1.50705000     -1.62578000     -4.62501000
  O     -1.78980000     -2.01362000     -5.91321000
  C     -0.14696300     -4.90225000     -0.71572200
  O     -0.47232900     -6.15774000     -0.82984000
  C      1.10710000     -4.72618000      2.19409000
  O      1.47344000     -5.79798000      2.81381000
  C     -3.19744000      1.35811000     -3.66836000
  O     -4.01036000      1.91182000     -4.57241000
  C     -5.13733000      1.17565000     -0.72239900
  O     -6.38003000      1.37933000     -1.00359000
  C      4.99058000     -1.66620000     -0.53003100
  O      6.20169000     -2.16460000     -0.45568100
  C     -0.56823200      5.45970000     -0.03267240
  O     -0.91554300      6.70195000     -0.08831890
  C      2.69583000     -4.18994000     -0.83548200
  O      3.41018000     -5.26032000     -1.03518000
  C     -2.82848000      3.68291000      1.76058000
  O     -3.52244000      4.67878000      2.22554000
  C      3.59954000     -3.01045000     -3.64843000
  O      4.56890000     -3.60215000     -4.23769000

