#B3LYP/6-31+G(d) OPT FREQ

110, Energy = -12108.08309022 au

0 1
 Ni     -0.62182200     -3.66824000     -2.18044000
 Ni     -1.68493000     -0.25021400     -1.19593000
 Ni     -0.22781700     -4.32284000      0.08221030
 Ni     -0.59785400      4.05162000     -0.11509600
 Ni     -1.28748000      2.19757000     -1.96303000
 Ni     -3.43501000      0.58703500      0.65867700
 Ni     -1.32170000     -0.93327700      1.25507000
 Ni     -0.15342400      3.45215000      2.20636000
 Ni     -0.20857200     -1.09049000     -3.10821000
 Ni      2.89249000     -0.89268100     -0.75563300
 Ni      0.29736400     -1.78338000     -0.58317900
 Ni      1.91567000     -2.60622000     -2.42778000
 Ni      3.25480000      1.59276000     -1.48151000
 Ni      1.53231000     -0.70557000      3.78965000
 Ni      1.09402000      0.00309012      1.12012000
 Ni      2.44689000     -0.12106100     -3.20294000
 Ni      1.16772000      3.18358000     -2.14636000
 Ni     -2.46026000     -1.98398000     -2.99947000
 Ni      3.13993000     -1.65148000      1.75084000
 Ni     -2.11820000     -2.89261000     -0.50695900
 Ni      3.62189000      1.09558000      1.05185000
 Ni      0.71072000      0.66250300     -1.32873000
 Ni     -2.11884000      0.26426400     -3.71936000
 Ni     -4.11040000     -1.22355000     -0.97132200
 Ni      1.93088000      1.89709000      3.00267000
 Ni     -0.51640700      0.87092000      3.16226000
 Ni      2.41451000     -3.35925000      0.09925010
 Ni     -1.80776000     -3.44416000      2.08383000
 Ni     -2.85147000      3.25896000      0.06034100
 Ni      1.58616000      2.55827000      0.39453800
 Ni     -2.51824000      2.52426000      2.27887000
 Ni     -2.85437000     -0.20591300      3.21723000
 Ni      0.29706500      1.39496000     -3.78277000
 Ni     -0.89497500      1.53951000      0.50440800
 Ni     -3.77891000     -1.82665000      1.39968000
 Ni     -1.07932000     -1.58465000      3.70811000
 Ni     -3.70663000      1.29509000     -1.80706000
 Ni      0.67911700     -2.44792000      1.87714000
  C     -2.18096000      2.14649000     -4.39276000
  O     -2.66381000      2.71054000     -5.48860000
  C     -2.08144000     -5.65382000      1.32185000
  O     -2.55145000     -6.49635000      2.16598000
  C      4.37571000     -3.23513000      0.35970300
  O      5.24223000     -4.22929000      0.47381600
  C     -5.03030000     -0.31724100      0.52899500
  O     -6.25400000      0.02133490      0.80316900
  C     -4.52132000      2.97560000      1.08874000
  O     -5.54108000      3.79968000      1.41064000
  C      2.67148000     -3.01761000      3.24740000
  O      3.22278000     -3.91033000      4.05964000
  C      1.47107000     -4.84499000      1.71655000
  O      1.51492000     -6.12785000      2.01240000
  C      2.43696000     -0.41470700      5.31432000
  O      2.82211000     -0.58874500      6.44991000
  C      1.17715000      4.76154000      2.20449000
  O      1.30332000      5.86960000      2.88438000
  C     -0.09173140     -3.28439000     -4.17531000
  O     -0.19681000     -4.08888000     -5.21072000
  C     -1.55779000      4.19188000     -2.24564000
  O     -2.06063000      5.13977000     -3.04202000
  C      0.81133900      3.18793000     -4.07349000
  O      1.04942000      3.99167000     -5.16867000
  C      1.22339000      4.99770000     -1.05341000
  O      1.41543000      6.24549000     -1.33482000
  C      0.71887800     -0.03647330     -5.11467000
  O      0.79490100     -0.17869200     -6.44386000
  C      0.75946300      2.42081000      4.60237000
  O      0.92328600      2.99343000      5.78939000
  C      3.29343000      3.42944000      0.95684700
  O      4.01389000      4.52961000      1.12515000
  C      3.86528000      1.86363000      3.33675000
  O      4.75717000      2.31939000      4.16723000
  C     -0.24328600     -3.44872000      4.10034000
  O     -0.14774100     -4.08983000      5.26727000
  C     -4.75862000     -0.14504400     -2.81822000
  O     -6.02027000     -0.36701500     -3.31297000
  C     -3.17433000     -3.58602000     -1.97520000
  O     -3.92513000     -4.42200000     -2.61445000
  C     -1.68946000      3.34897000      3.87712000
  O     -2.25950000      4.22507000      4.71290000
  C     -2.41301000     -1.18601000     -4.58866000
  O     -2.80639000     -1.47500000     -5.76190000
  C     -4.12039000      1.42344000      3.56277000
  O     -5.03258000      1.64677000      4.51929000
  C     -1.23610000     -0.18822900      4.71148000
  O     -1.40674000      0.06576840      5.95750000
  C      2.63867000     -2.05324000     -4.12714000
  O      3.40447000     -2.62009000     -5.08054000
  C     -3.27016000     -2.08029000      3.21835000
  O     -4.11282000     -2.58565000      4.07648000
  C      4.84524000     -0.67233800      1.95935000
  O      6.03147000     -0.88636600      2.49957000
  C      5.15153000      1.17643000     -0.28864600
  O      6.42492000      1.60339000     -0.29315000
  C     -1.23547000     -4.97088000     -1.34834000
  O     -1.47803000     -6.20967000     -1.52692000
  C     -4.40430000     -3.63024000     -0.37829600
  O     -5.51036000     -4.07587000      0.25154200
  C      3.41307000      3.43159000     -2.22920000
  O      4.33216000      4.23195000     -2.76106000
  C      1.91485000     -4.59463000     -1.72983000
  O      2.56236000     -5.68351000     -2.23630000
  C     -4.35443000      3.09184000     -1.86238000
  O     -5.49495000      3.61068000     -2.34401000
  C     -1.93614000      4.56505000      0.72160000
  O     -2.35580000      5.76847000      0.92024000
  C      4.41606000     -1.28610000     -1.70011000
  O      5.62385000     -1.61087000     -1.92112000
  C      3.58475000      1.18399000     -3.90540000
  O      4.47365000      1.33652000     -4.85079000

