#B3LYP/6-31+G(d) OPT FREQ

110, Energy = -12723.56961499 au

0 1
 Ni     -0.90712400     -3.34741000     -2.05774000
 Ni     -1.54449000      0.23040100     -0.70190900
 Ni     -0.28250400     -4.11550000      0.52608600
 Ni      0.33122000      4.23841000      0.00496741
 Ni     -0.88663700      2.58655000     -1.60703000
 Ni     -3.02806000      1.31887000      1.48932000
 Ni     -0.89907700     -0.52709800      1.70988000
 Ni      0.88717700      3.54901000      2.39982000
 Ni     -0.26532200     -0.80829100     -2.77882000
 Ni      2.97463000     -1.10033000     -0.83869600
 Ni      0.32639100     -1.60937000     -0.33634400
 Ni      1.52890000     -2.68176000     -2.45223000
 Ni      3.49358000      1.45664000     -1.72073000
 Ni      2.30831000     -0.66320900      3.72318000
 Ni      1.56439000      0.05822500      1.25367000
 Ni      2.24929000     -0.15587400     -3.25638000
 Ni      1.68196000      3.21781000     -2.02066000
 Ni     -2.76789000     -1.44504000     -2.34709000
 Ni      3.47542000     -1.80399000      1.66437000
 Ni     -2.26056000     -2.28094000      0.13406300
 Ni      4.05083000      0.72773600      0.70674500
 Ni      0.97787500      0.80275400     -1.16845000
 Ni     -2.19435000      0.99063800     -3.16853000
 Ni     -4.04436000     -0.41790600     -0.34440700
 Ni      2.84792000      1.77460000      2.81795000
 Ni      0.40441400      1.26082000      3.67456000
 Ni      2.39405000     -3.46390000      0.02794390
 Ni     -1.64313000     -2.97902000      2.59484000
 Ni     -2.17864000      3.62020000      0.54683900
 Ni      2.25199000      2.54141000      0.39508600
 Ni     -1.55805000      2.96392000      2.88437000
 Ni     -2.24112000      0.47315600      3.75626000
 Ni      0.32334900      1.59121000     -3.72389000
 Ni     -0.27872000      1.84672000      0.88524500
 Ni     -3.48292000     -1.23800000      2.09375000
 Ni     -0.33843700     -1.31886000      4.19340000
 Ni     -3.63659000      2.06339000     -1.08485000
 Ni      0.98088900     -2.64746000      2.40080000
  C     -1.60172000      4.60357000     -1.53867000
  O     -1.97896000      5.62777000     -2.32191000
  C     -3.14931000      2.12370000      3.54772000
  O     -4.02088000      2.66731000      4.33240000
  C     -0.74031600      0.37092200      4.94556000
  O     -0.83529600      0.63484400      6.21441000
  C     -4.66301000      1.16904000      0.46493400
  O     -5.88633000      1.40999000      0.82256100
  C      5.23621000      0.25585100     -0.88362200
  O      6.59057000      0.26385800     -0.94555600
  C     -4.09506000      3.65563000      1.18173000
  O     -4.79911000      4.74527000      1.42143000
  C      1.34369000     -2.12315000      4.46708000
  O      1.71629000     -2.73536000      5.54625000
  C     -0.78025000      4.75855000      1.62756000
  O     -0.95434800      6.00325000      1.94824000
  C     -1.92763000     -2.33360000      4.36735000
  O     -2.40737000     -2.94903000      5.51844000
  C     -1.80499000      2.44610000     -4.46344000
  O     -2.31122000      2.93609000     -5.58554000
  C     -1.80651000     -1.05576000     -4.46295000
  O     -1.97611000     -1.44263000     -5.72714000
  C      3.02165000     -3.88301000     -2.04949000
  O      3.69303000     -4.83924000     -2.72172000
  C      1.22441000     -5.12190000     -0.32650600
  O      1.52243000     -6.45227000     -0.33620300
  C      0.55517400      3.66964000     -3.81167000
  O      0.73477400      4.59526000     -4.77687000
  C      1.13789000      0.55795700     -5.21468000
  O      1.46138000      0.80038200     -6.47837000
  C     -0.24039900     -4.30748000      2.40294000
  O     -0.24441900     -5.38939000      3.11574000
  C     -3.24000000     -3.35152000     -2.43891000
  O     -4.07442000     -4.06324000     -3.19975000
  C      2.16500000      1.07933000      4.43865000
  O      2.61773000      1.43302000      5.61220000
  C      3.79590000      2.93144000     -0.60777500
  O      4.68552000      3.86524000     -0.57940700
  C      4.72972000      1.73913000      2.32088000
  O      5.88872000      2.21194000      2.85695000
  C     -3.39748000     -3.09858000      1.92752000
  O     -4.25736000     -4.01722000      2.22256000
  C      2.84916000      3.96088000      2.28080000
  O      3.42892000      5.13155000      2.72594000
  C      2.61072000     -3.53163000      1.94765000
  O      3.09659000     -4.54583000      2.59671000
  C     -0.10091900     -4.39141000     -3.45801000
  O     -0.27890000     -5.46139000     -4.17648000
  C      3.21589000      2.17974000     -3.65307000
  O      4.19593000      2.71032000     -4.42404000
  C     -0.00640607      3.10421000      4.00800000
  O      0.01832580      3.83639000      5.08603000
  C     -4.12989000      0.01194500     -2.73344000
  O     -5.22257000     -0.10537900     -3.59592000
  C      2.03956000      5.06989000     -0.95246500
  O      2.24065000      6.36616000     -1.25405000
  C     -1.98591000     -4.67208000     -0.36286500
  O     -2.69415000     -5.83699000     -0.39406900
  C     -4.34044000     -0.17566400      3.54169000
  O     -5.41677000     -0.36247400      4.33804000
  C     -4.90370000     -2.08055000      0.01448590
  O     -6.10362000     -2.60188000     -0.20359600
  C      4.08995000     -2.52208000      0.04069760
  O      5.27270000     -3.02605000     -0.15949400
  C      3.99711000     -0.96504300     -3.10308000
  O      5.05777000     -1.24987000     -3.85083000
  C      1.37231000     -1.99581000     -4.40107000
  O      1.54531000     -2.50961000     -5.63470000
  C      4.24671000     -0.97032400      3.21403000
  O      5.35118000     -1.37335000      3.93637000
  C     -4.27808000      3.35582000     -2.48359000
  O     -5.44209000      3.78831000     -2.78846000

