#B3LYP/6-31+G(d) OPT FREQ

110, Energy = -12653.42503227 au

0 1
 Ni     -0.57232700     -3.69884000     -2.44323000
 Ni     -1.77488000     -0.46651700     -0.88725800
 Ni      0.70340000     -4.31048000     -0.13898600
 Ni     -0.90481200      4.01473000     -0.28752100
 Ni     -1.94545000      2.11213000     -1.70868000
 Ni     -2.94813000      0.21216000      1.54014000
 Ni     -0.54590600     -1.05350000      1.32871000
 Ni      0.45629300      3.46391000      1.93116000
 Ni     -0.83875200     -1.22363000     -3.60966000
 Ni      2.67684000     -0.53709100     -2.02178000
 Ni      0.46231500     -1.74247000     -0.97349500
 Ni      1.59567000     -2.45599000     -3.29618000
 Ni      2.55303000      1.95503000     -2.82104000
 Ni      2.83864000     -0.38415400      2.66251000
 Ni      1.58957000      0.16446100      0.41227300
 Ni      1.45332000      0.07962660     -4.16451000
 Ni      0.26216400      3.22154000     -2.62072000
 Ni     -2.92904000     -2.38188000     -2.40812000
 Ni      3.85873000     -1.12978000      0.43258000
 Ni     -1.74223000     -3.35233000     -0.14081900
 Ni      3.82484000      1.50281000     -0.46017200
 Ni      0.33297700      0.73540600     -1.78925000
 Ni     -3.03669000      0.15903200     -3.13773000
 Ni     -3.92749000     -1.75751000     -0.00411940
 Ni      2.69728000      2.15494000      1.88040000
 Ni      0.57027300      0.87954500      2.73536000
 Ni      2.76168000     -3.03462000     -1.02887000
 Ni     -0.43445200     -3.59713000      2.24798000
 Ni     -2.95630000      2.82560000      0.60005700
 Ni      1.45157000      2.70019000     -0.34738500
 Ni     -1.70956000      2.22733000      2.79790000
 Ni     -1.53240000     -0.51785600      3.69608000
 Ni     -0.76518300      1.37103000     -4.04274000
 Ni     -0.68884100      1.45537000      0.51526700
 Ni     -2.79189000     -2.29378000      2.27754000
 Ni      0.69848000     -1.79935000      3.63201000
 Ni     -4.02096000      0.88277300     -0.78684100
 Ni      1.85019000     -2.56686000      1.41025000
  C     -3.57371000      2.13192000      3.20063000
  O     -4.46304000      2.64815000      4.03637000
  C     -0.14320500      3.85955000      3.70878000
  O     -0.14487600      4.95408000      4.43865000
  C      4.95895000      3.27158000     -0.29261200
  O      6.20842000      3.49535000     -0.42717500
  C      0.65690600      5.21634000      0.67944500
  O      0.71267100      6.54670000      0.82255800
  C      2.49975000     -4.24395000      0.41357300
  O      3.20281000     -5.28061000      0.77451900
  C     -0.77169800     -4.88202000      0.87408300
  O     -1.04903000     -6.12164000      1.06141000
  C     -2.66998000      2.25795000     -4.10434000
  O     -3.06495000      2.89671000     -5.21944000
  C      1.10510000      2.47778000     -4.25876000
  O      1.40110000      3.20071000     -5.28999000
  C     -4.35518000     -1.15860000      1.76693000
  O     -5.50219000     -1.16976000      2.24855000
  C      2.80604000      4.11756000      1.90587000
  O      3.59237000      5.02171000      2.47439000
  C      4.37814000      1.28431000     -3.47442000
  O      5.16765000      1.76505000     -4.37098000
  C      2.84460000     -1.31568000     -4.17423000
  O      3.61127000     -1.41571000     -5.18327000
  C     -3.40102000     -3.42656000      0.80091000
  O     -4.10291000     -4.51702000      0.89818900
  C      1.19303000     -3.55565000      3.10643000
  O      1.70263000     -4.51094000      3.80288000
  C     -2.71743000     -1.50054000     -4.08424000
  O     -3.22388000     -1.82167000     -5.20358000
  C      0.15706500     -1.10902000      5.39308000
  O      0.25893100     -1.59613000      6.58583000
  C     -1.76765000     -3.30614000      3.39868000
  O     -2.17067000     -4.13482000      4.27906000
  C      0.89211100     -4.98446000     -2.02831000
  O      1.03651000     -6.26549000     -2.52678000
  C     -4.77771000      0.96008700     -2.72575000
  O     -5.94325000      1.18211000     -3.38493000
  C      3.10222000     -1.77228000      3.97429000
  O      3.97156000     -2.09500000      4.92656000
  C     -2.35559000     -4.12452000     -2.08551000
  O     -2.97577000     -5.18373000     -2.52007000
  C     -4.91621000     -1.78711000     -1.74333000
  O     -6.14344000     -2.35517000     -1.95977000
  C     -5.01164000      1.66862000      0.75569100
  O     -6.31298000      2.02061000      0.84745400
  C     -3.27467000     -0.96061100      4.34674000
  O     -3.87676000     -1.09130000      5.51442000
  C     -0.92712100      1.44420000      4.69024000
  O     -0.93533400      1.87281000      5.96204000
  C      4.56001000      0.87366700      2.09099000
  O      5.74439000      1.09430000      2.72912000
  C      4.78101000     -0.47024900     -1.31623000
  O      6.03724000     -0.68757200     -1.86616000
  C     -0.07064190     -2.92770000     -4.11249000
  O     -0.15414100     -3.50762000     -5.28836000
  C      4.55889000     -2.59119000      1.43082000
  O      5.74652000     -3.10709000      1.60780000
  C     -3.25162000      3.34530000     -1.17126000
  O     -3.99691000      4.20648000     -1.78679000
  C      2.34726000      1.56429000      4.08457000
  O      2.70784000      1.98323000      5.30301000
  C     -1.08500000      4.78240000     -2.32533000
  O     -1.17370000      5.98972000     -2.91716000
  C      2.33361000      4.14446000     -1.70943000
  O      3.02530000      5.28384000     -1.79287000
  C     -0.17025700     -0.07808080     -5.12686000
  O     -0.25803800     -0.17113900     -6.39023000
  C     -2.27355000      4.58184000      1.55405000
  O     -3.02290000      5.67191000      1.81104000
  C      3.69939000     -3.06712000     -3.21145000
  O      4.49779000     -4.12775000     -3.40316000

