#B3LYP/6-31+G(d) OPT FREQ

110, Energy = -12395.71849529 au

0 1
 Ni     -2.79186000     -2.78903000     -1.60932000
 Ni     -2.14257000      0.77040700     -0.24855600
 Ni     -1.63305000     -3.72755000      0.73160100
 Ni      0.81368000      4.31950000     -0.15612000
 Ni     -1.21555000      3.16748000     -1.32910000
 Ni     -2.56548000      2.25508000      2.30607000
 Ni     -1.09202000     -0.15161500      1.91122000
 Ni      1.76254000      3.33392000      1.97869000
 Ni     -1.77641000     -0.53105000     -2.53362000
 Ni      1.68223000     -1.39341000     -1.54892000
 Ni     -0.73475700     -1.44070000     -0.33588100
 Ni     -0.32884100     -2.76516000     -2.78912000
 Ni      2.65477000      0.90784200     -2.75243000
 Ni      2.51155000     -1.11886000      2.96917000
 Ni      1.28720000     -0.13081700      0.79370900
 Ni      0.68194600     -0.41588200     -3.88027000
 Ni      1.20565000      3.07293000     -2.50092000
 Ni     -4.18150000     -0.49685700     -1.28553000
 Ni      2.90520000     -2.46184000      0.72994200
 Ni     -3.20493000     -1.54314000      0.77316600
 Ni      3.83990000     -0.06523260     -0.35914300
 Ni      0.20070700      0.81044200     -1.40788000
 Ni     -3.34320000      1.69680000     -2.40709000
 Ni     -4.51340000      0.84709900      0.85314600
 Ni      3.40740000      1.18255000      1.96332000
 Ni      0.86893100      1.02327000      3.18636000
 Ni      0.79654500     -3.74157000     -0.37431200
 Ni     -1.99085000     -2.34840000      3.00195000
 Ni     -1.53431000      4.26682000      0.93522300
 Ni      2.25779000      2.14008000     -0.27022600
 Ni     -0.53233500      3.27987000      3.13610000
 Ni     -1.46665000      1.02454000      4.28723000
 Ni     -0.81004900      1.76401000     -3.66232000
 Ni     -0.17201900      2.03766000      0.86768200
 Ni     -3.49241000     -0.24861200      2.95529000
 Ni      0.08541590     -1.10877000      4.10897000
 Ni     -3.61067000      2.92987000     -0.15027900
 Ni      0.38295600     -2.36419000      1.83565000
  C     -4.96327000      1.66123000     -0.82682200
  O     -6.17890000      2.00627000     -1.10452000
  C     -2.51018000      2.57425000     -4.39134000
  O     -2.92316000      3.07476000     -5.53944000
  C      4.92784000      0.17920200      2.51335000
  O      6.03401000      0.57431700      3.08466000
  C     -3.33340000      3.86496000      1.49541000
  O     -3.99772000      4.83290000      2.07153000
  C     -4.89803000     -0.94906300      1.32583000
  O     -6.05841000     -1.54495000      1.61636000
  C      1.32494000      1.18748000     -5.05315000
  O      1.58082000      1.32904000     -6.34055000
  C     -0.10494800      4.06440000     -3.69675000
  O      0.12213900      5.08617000     -4.52285000
  C     -4.29954000      1.50539000      2.60975000
  O     -5.22614000      2.11122000      3.31789000
  C      3.47716000     -0.54321300     -3.66420000
  O      4.36874000     -0.65747200     -4.61006000
  C     -3.02200000      4.05167000     -2.25322000
  O     -4.01337000      4.95326000     -2.41997000
  C     -0.74996300     -3.27111000      4.21770000
  O     -0.88261300     -4.06758000      5.29768000
  C     -4.65969000     -2.34074000     -1.34053000
  O     -5.82268000     -2.96432000     -1.74140000
  C      2.48181000     -4.53613000      0.34413700
  O      3.11329000     -5.72103000      0.36081100
  C     -0.31185100     -4.93165000      1.46767000
  O     -0.32933200     -6.19249000      1.92218000
  C     -1.86428000      2.83604000      4.37640000
  O     -2.34472000      3.47885000      5.39078000
  C     -2.60191000     -4.64979000     -0.87234500
  O     -3.33264000     -5.77827000     -1.04286000
  C     -0.88955600      5.10788000     -0.63467300
  O     -1.12389000      6.31128000     -1.07112000
  C      5.20147000     -1.04915000     -1.20700000
  O      6.47418000     -0.95191000     -1.34351000
  C      1.56086000      2.43193000      4.32529000
  O      2.05469000      2.68551000      5.54933000
  C     -2.20848000     -3.16470000     -3.62988000
  O     -2.68355000     -4.00337000     -4.57590000
  C      2.09276000     -3.21862000      3.09702000
  O      2.39680000     -4.27264000      3.87748000
  C      3.91337000      3.32215000      2.04117000
  O      4.56852000      4.21068000      2.79365000
  C      2.89175000     -0.63087400      4.83947000
  O      3.72898000     -0.95283200      5.80274000
  C     -3.45159000     -3.70593000      1.96828000
  O     -4.30073000     -4.55354000      2.60475000
  C      1.11350000     -2.38312000     -4.35202000
  O      1.44820000     -3.01508000     -5.49398000
  C     -0.26156600      0.17050800      5.38389000
  O     -0.11109200      0.16790700      6.67680000
  C     -1.24212000     -0.60886900     -4.77994000
  O     -1.77649000     -0.87899500     -5.98271000
  C      4.61542000     -2.25749000      1.52215000
  O      5.64602000     -3.00357000      1.82485000
  C      4.45518000      1.98797000     -0.26920900
  O      5.54896000      2.76041000     -0.48078700
  C      2.78211000      4.40675000     -0.89851900
  O      3.28685000      5.65196000     -0.83494600
  C      3.40098000     -3.18902000     -1.92801000
  O      4.18529000     -3.87813000     -2.68470000
  C     -2.87965000     -1.02109000      4.78207000
  O     -3.78527000     -1.26960000      5.77417000
  C     -4.13629000      0.23503900     -3.47712000
  O     -5.12565000      0.17570800     -4.40053000
  C      3.38459000      2.85704000     -3.07527000
  O      4.23790000      3.42483000     -3.91829000
  C      0.35815500     -4.65946000     -2.12202000
  O      0.48077400     -5.90259000     -2.62662000
  C      0.22439200      4.74326000      2.11904000
  O      0.38858200      5.91720000      2.63357000

