#B3LYP/6-31+G(d) OPT FREQ

110, Energy = -12744.03617286 au

0 1
 Ni     -0.43890500     -3.41251000     -1.75213000
 Ni     -1.69061000     -0.63449500      0.58959500
 Ni      1.91496000     -3.28374000     -0.63025800
 Ni     -2.36806000      3.85160000      0.98983800
 Ni     -3.53747000      1.53802000      0.15839200
 Ni     -1.62808000     -0.08618640      3.46204000
 Ni      0.65658500     -0.43695600      1.65868000
 Ni      0.01067480      3.94842000      2.05260000
 Ni     -1.92241000     -1.25521000     -2.02281000
 Ni      1.10098000      0.73439800     -2.68358000
 Ni      0.44231200     -1.02365000     -0.88906700
 Ni      0.13021300     -1.64055000     -3.56501000
 Ni     -0.38870100      2.83895000     -2.96300000
 Ni      3.75481000      1.59585000      0.95560300
 Ni      1.29465000      1.31344000     -0.11476500
 Ni     -1.32844000      0.63787400     -3.83009000
 Ni     -2.56328000      3.30344000     -1.59570000
 Ni     -2.57914000     -2.99107000     -0.12496500
 Ni      3.46251000      0.93375700     -1.66255000
 Ni     -0.19448800     -2.83179000      0.85598100
 Ni      1.94919000      3.09998000     -1.92645000
 Ni     -1.05640000      1.11071000     -1.18972000
 Ni     -4.07146000     -0.85069700     -0.51929400
 Ni     -2.37831000     -2.46219000      2.41000000
 Ni      2.17573000      3.65632000      0.64714200
 Ni      1.81963000      2.01583000      2.61460000
 Ni      2.62246000     -1.35063000     -2.43446000
 Ni      2.22559000     -2.60006000      2.00968000
 Ni     -2.97291000      2.04562000      2.72251000
 Ni     -0.32519300      3.53436000     -0.43614100
 Ni     -0.51148000      2.21351000      3.88531000
 Ni      0.88015900      0.15729300      4.32433000
 Ni     -3.35203000      1.02022000     -2.32438000
 Ni     -0.82099600      1.65428000      1.33451000
 Ni     -0.07743960     -2.25953000      3.50750000
 Ni      3.15262000     -0.25732200      2.78062000
 Ni     -3.98153000     -0.26840200      2.03233000
 Ni      2.94083000     -0.79102800      0.28371200
  C      1.26166000     -2.05295000     -5.00290000
  O      1.36185000     -2.40403000     -6.23080000
  C      3.54934000     -2.02680000      3.20261000
  O      4.42085000     -2.57697000      3.94796000
  C      0.48625200      5.45830000      0.45206600
  O      0.23011300      6.65883000      1.03473000
  C     -4.34974000     -0.65448000     -2.83716000
  O     -5.39754000     -0.80734700     -3.67912000
  C     -4.26411000      2.53409000     -1.60816000
  O     -5.35887000      3.05723000     -2.06509000
  C     -1.82398000     -4.69993000     -0.71861600
  O     -2.36067000     -5.93042000     -0.92975700
  C     -1.85358000     -1.90278000      4.15723000
  O     -2.38789000     -2.23094000      5.29488000
  C      3.49700000      3.16868000      1.94257000
  O      4.39541000      3.92684000      2.48639000
  C     -0.73224900      0.88479700      5.17052000
  O     -1.12318000      1.14496000      6.37838000
  C      3.58524000     -0.11556400     -3.71761000
  O      4.44756000     -0.18536100     -4.73284000
  C      4.94594000      2.03298000     -0.78505900
  O      6.14536000      2.50854000     -1.14319000
  C     -4.37247000     -2.20349000      2.20131000
  O     -5.43460000     -2.80975000      2.83725000
  C     -3.99002000      2.93885000      1.36313000
  O     -5.16417000      3.48670000      1.49144000
  C      2.94667000      2.58705000     -3.49360000
  O      3.61959000      3.36179000     -4.34603000
  C      4.66223000     -1.09732000     -1.09868000
  O      5.93830000     -1.48175000     -1.15424000
  C      0.96453100      3.39172000      3.65223000
  O      1.45309000      4.24191000      4.50674000
  C     -1.88206000      3.77815000      3.03919000
  O     -2.37631000      4.67196000      3.84348000
  C      4.66799000      0.19150000      1.78571000
  O      5.92895000      0.14796800      2.05875000
  C      0.34521600      4.77035000     -2.39716000
  O      0.24264000      5.92405000     -3.10614000
  C     -2.19476000      2.56093000     -3.66883000
  O     -2.62745000      3.23030000     -4.69444000
  C      1.01855000     -4.01006000      3.05494000
  O      1.31120000     -5.08053000      3.83706000
  C      1.15521000     -1.67217000      5.01194000
  O      1.24742000     -2.02149000      6.33437000
  C     -2.16370000      4.83454000     -0.60723800
  O     -2.58231000      6.03866000     -0.83116400
  C     -1.88463000     -4.28472000      2.17169000
  O     -2.20218000     -5.45091000      2.73008000
  C      3.59287000     -3.50030000      0.62738600
  O      4.57593000     -4.42224000      0.74350600
  C     -3.65510000      0.57624900      3.69100000
  O     -4.50074000      0.67049200      4.67119000
  C     -4.47940000     -2.75754000     -0.83473100
  O     -5.56771000     -3.53712000     -1.06454000
  C      2.59980000      0.95952800      4.13474000
  O      3.32670000      1.37481000      5.12819000
  C      0.59628200     -4.42120000     -2.97951000
  O      0.57568500     -5.52017000     -3.66735000
  C      3.09962000     -3.27005000     -2.52283000
  O      3.92607000     -4.05674000     -3.21784000
  C      2.76555000      4.68009000     -0.89018700
  O      3.42962000      5.85301000     -1.05118000
  C      1.09769000     -4.91574000      0.06349150
  O      1.30845000     -6.20873000      0.18417000
  C     -2.07151000     -2.96681000     -3.37245000
  O     -2.84375000     -3.59160000     -4.26150000
  C     -2.01546000     -0.64111900     -5.02344000
  O     -2.46343000     -0.67749800     -6.24426000
  C      0.56160300      1.40046000     -4.81124000
  O      1.01939000      1.73062000     -6.02204000
  C     -5.11708000      0.28426100      0.63936100
  O     -6.40892000      0.36875500      0.56235000

