#B3LYP/6-31+G(d) OPT FREQ

110, Energy = -12450.99123761 au

0 1
 Ni      0.50306900     -3.34078000     -2.42764000
 Ni     -1.27578000     -0.22924200     -1.33471000
 Ni      1.03533000     -3.99989000     -0.10155500
 Ni     -0.89509100      4.23106000     -0.50030700
 Ni     -1.47542000      2.36930000     -2.27008000
 Ni     -2.95376000      0.31856200      0.60335600
 Ni     -0.67234200     -0.80013800      1.11021000
 Ni     -0.28930900      3.63806000      2.05143000
 Ni      0.43995400     -0.80940100     -3.32180000
 Ni      3.39651000     -0.04881880     -1.06695000
 Ni      0.98448000     -1.37234000     -0.80824700
 Ni      2.72341000     -1.83407000     -2.84169000
 Ni      3.09264000      2.50330000     -1.92564000
 Ni      2.19054000     -0.01140480      3.39920000
 Ni      1.51219000      0.53677800      0.85938300
 Ni      2.66382000      0.62151400     -3.54453000
 Ni      0.88471500      3.59047000     -2.45575000
 Ni     -1.80681000     -2.14340000     -3.03161000
 Ni      3.83993000     -0.64197100      1.36110000
 Ni     -1.20840000     -2.77523000     -0.56799200
 Ni      3.71913000      1.87630000      0.60837800
 Ni      0.90637200      1.11115000     -1.58012000
 Ni     -2.00468000      0.43472700     -3.78801000
 Ni     -3.49920000     -1.65452000     -1.06295000
 Ni      2.05222000      2.51923000      2.58117000
 Ni     -0.17852300      1.19498000      2.85526000
 Ni      3.33459000     -2.50052000     -0.31056400
 Ni     -0.59393200     -3.31093000      1.93228000
 Ni     -2.99979000      2.92129000     -0.22396200
 Ni      1.45737000      3.05355000      0.09624340
 Ni     -2.47348000      2.31569000      2.32081000
 Ni     -2.44823000     -0.29005000      3.14938000
 Ni      0.42028900      1.77804000     -4.00305000
 Ni     -0.74810400      1.69066000      0.32580800
 Ni     -2.93395000     -2.19081000      1.31014000
 Ni     -0.04001480     -1.41692000      3.62120000
 Ni     -3.60492000      0.96890400     -1.97377000
 Ni      1.61300000     -1.98886000      1.63727000
  C     -4.82227000      1.95575000     -0.54382200
  O     -6.04914000      2.55723000     -0.69932100
  C      2.70846000      2.54237000     -3.79659000
  O      3.41262000      3.06309000     -4.75353000
  C     -1.28769000      3.07522000      3.56735000
  O     -1.55371000      3.73759000      4.64414000
  C     -0.67405700      0.38035500     -5.45079000
  O     -0.87102500      0.84551200     -6.71506000
  C      3.27560000     -2.53430000      2.72980000
  O      3.97912000     -3.36339000      3.45323000
  C      4.94785000      1.39332000     -0.78565800
  O      6.26984000      1.81309000     -0.92019300
  C     -4.06059000     -2.98987000      0.08146190
  O     -5.06843000     -3.78614000      0.13375100
  C     -0.28456700      3.51910000     -4.11943000
  O     -0.26860100      4.58337000     -4.95895000
  C      1.05975000      5.28326000     -1.21335000
  O      0.60273800      6.48892000     -1.29020000
  C     -2.69326000     -1.25867000     -4.75069000
  O     -3.33384000     -1.59309000     -5.85033000
  C     -0.00117096     -2.99893000      4.63793000
  O     -0.02945040     -3.45182000      5.89840000
  C      4.13843000     -0.52357600     -2.76110000
  O      5.34578000     -0.56178600     -3.23127000
  C     -0.18986700     -2.88371000     -4.53302000
  O     -0.04667750     -3.78117000     -5.51556000
  C      1.37521000      5.00588000      1.91845000
  O      1.36285000      6.18223000      2.49415000
  C      2.52329000      4.66097000     -1.13963000
  O      3.59898000      5.23834000     -1.56295000
  C     -2.64311000     -3.12339000      3.07627000
  O     -3.39643000     -3.98645000      3.77764000
  C      2.52464000     -0.72130400      5.08367000
  O      3.19746000     -0.79528400      6.17620000
  C     -2.64094000     -3.77121000     -2.30668000
  O     -3.26390000     -4.80532000     -2.90395000
  C     -0.50007800      0.42540600      4.88888000
  O     -0.59941000      0.74364900      6.18017000
  C      1.85931000      2.43284000      4.52204000
  O      2.43360000      3.17069000      5.43814000
  C     -3.32018000      1.82618000     -3.58526000
  O     -4.08052000      2.32593000     -4.49976000
  C      2.97639000     -4.55713000      0.33738700
  O      3.72224000     -5.66840000      0.31756100
  C     -4.87503000     -0.60235200     -2.33885000
  O     -6.12875000     -0.84408000     -2.76086000
  C      0.84193400     -4.53967000      2.35827000
  O      0.97054800     -5.68333000      3.03815000
  C     -3.47932000     -0.58174700      4.70558000
  O     -4.34472000     -0.60518600      5.65023000
  C      3.54615000      3.57287000      1.60342000
  O      4.48258000      4.51671000      1.97704000
  C     -4.69946000     -0.59494700      1.37529000
  O     -5.99053000     -0.54363000      1.67045000
  C      0.46969300     -4.97177000     -1.57122000
  O      0.51260600     -6.19640000     -1.96084000
  C     -1.54993000     -4.69356000      0.60894000
  O     -2.02900000     -5.94212000      0.61541800
  C      4.89642000     -1.64739000      0.20597100
  O      6.11733000     -2.05736000      0.20290300
  C     -4.47106000      2.02875000      2.46231000
  O     -5.30984000      2.63470000      3.18765000
  C      1.96818000     -0.81162200     -4.52149000
  O      2.23925000     -1.09710000     -5.75518000
  C      4.49951000      0.70789300      2.74457000
  O      5.72563000      0.72461700      3.29919000
  C      3.20722000     -3.75174000     -2.55642000
  O      4.00541000     -4.44988000     -3.38538000
  C     -2.47672000      3.95656000     -1.72417000
  O     -3.13269000      4.85287000     -2.39252000
  C     -2.23306000      4.27313000      1.04593000
  O     -2.88978000      5.36353000      1.30362000

