#B3LYP/6-31+G(d) OPT FREQ

110, Energy = -11749.56997246 au

0 1
 Ni     -0.36748400      1.39523000      4.15779000
 Ni      0.96777100      0.89004400      0.73730700
 Ni     -0.58471800     -1.11807000      4.50826000
 Ni     -0.05120740      0.48261000     -3.71977000
 Ni      0.56446300      1.94010000     -1.59084000
 Ni      2.71871000     -0.68986300     -0.29063700
 Ni      0.74970000     -1.64469000      1.04729000
 Ni     -0.23688300     -2.09110000     -3.34736000
 Ni     -0.77827300      2.46883000      1.77333000
 Ni     -3.42264000      0.03346090      1.11618000
 Ni     -0.99476500     -0.06952490      2.09882000
 Ni     -2.79856000      1.56199000      3.13419000
 Ni     -3.81908000      1.12979000     -1.21146000
 Ni     -1.86150000     -4.11540000      0.36542100
 Ni     -1.62220000     -1.54709000      0.07417480
 Ni     -3.20065000      2.60808000      0.79368400
 Ni     -1.83538000      2.08979000     -2.59597000
 Ni      1.60630000      2.38691000      2.79720000
 Ni     -3.62726000     -2.48534000      1.46893000
 Ni      1.36771000     -0.15851800      3.08940000
 Ni     -4.01767000     -1.46683000     -0.91494000
 Ni     -1.40079000      0.98780200     -0.23290200
 Ni      1.21917000      3.50449000      0.41541100
 Ni      3.39813000      0.82566700      1.74187000
 Ni     -2.27875000     -3.09864000     -1.97866000
 Ni      0.12802100     -3.15872000     -0.97437900
 Ni     -2.99246000     -1.04464000      3.44448000
 Ni      1.14985000     -2.72150000      3.39911000
 Ni      2.35701000      0.38404900     -2.68606000
 Ni     -2.01761000     -0.48795700     -2.25744000
 Ni      2.12044000     -2.21437000     -2.35757000
 Ni      2.52847000     -3.28415000      0.03716180
 Ni     -1.20861000      3.60396000     -0.57430600
 Ni      0.34275000     -0.58491000     -1.28671000
 Ni      3.15318000     -1.78121000      2.04029000
 Ni      0.54043400     -4.20698000      1.36266000
 Ni      3.01297000      1.88335000     -0.62227200
 Ni     -1.23320000     -2.61056000      2.42842000
  C     -0.51539900     -1.36661000     -5.25509000
  O     -0.69192000     -1.95576000     -6.38714000
  C      4.41305000      3.22296000     -0.03186300
  O      5.44101000      3.84504000     -0.46943500
  C      2.21226000      3.33357000     -3.87044000
  O      2.60626000      4.41385000     -4.45135000
  C     -5.37615000     -0.11273800     -2.18969000
  O     -6.56781000     -0.63332000     -2.34850000
  C      3.28146000     -1.83087000      4.10161000
  O      3.85420000     -2.04398000      5.27729000
  C     -2.62246000      5.14347000      0.25761400
  O     -3.61263000      5.96602000      0.26843100
  C     -4.95205000      1.62136000      0.56641900
  O     -6.09526000      2.20199000      0.57469400
  C     -0.89859700      4.83975000     -2.05937000
  O     -1.20279000      5.97314000     -2.67204000
  C      2.66426000      3.98283000      2.03251000
  O      3.34019000      4.88029000      2.69034000
  C      5.27590000      0.59379200      2.81873000
  O      6.36896000      1.15184000      2.97052000
  C     -2.79582000      0.30878200      5.22273000
  O     -3.76967000      0.28039900      6.11293000
  C     -0.35354300     -3.89173000      4.46031000
  O     -0.39109900     -4.19879000      5.73445000
  C     -0.33359600      3.62339000      4.09170000
  O     -0.41964700      4.00957000      5.34594000
  C      2.98097000     -1.50842000     -4.14460000
  O      3.79493000     -2.04507000     -4.98918000
  C      1.59346000      5.07568000     -0.77206700
  O      2.07207000      6.26366000     -0.75010300
  C      4.77259000     -2.75347000      1.10876000
  O      5.83725000     -3.09563000      1.77701000
  C     -1.38877000     -4.71141000     -1.40327000
  O     -1.81300000     -5.90968000     -1.69559000
  C      2.05810000     -5.14090000     -0.84974100
  O      2.13782000     -6.41860000     -0.69570900
  C     -3.87050000     -3.47459000     -3.27645000
  O     -4.36894000     -4.05926000     -4.33289000
  C      1.51213000      0.43427500     -5.08111000
  O      1.84168000      0.63060600     -6.31342000
  C      1.22482000     -3.87174000     -3.88155000
  O      1.26030000     -5.00695000     -4.50497000
  C      2.47750000      1.32853000      4.71681000
  O      3.22274000      1.87353000      5.62103000
  C     -1.05307000     -5.69655000      1.38439000
  O     -1.40554000     -6.64620000      2.17168000
  C     -0.55263100      5.36221000      1.53256000
  O     -0.57583300      6.42156000      2.27186000
  C     -3.78496000     -0.11049000     -4.30198000
  O     -4.24118000     -0.06857970     -5.50780000
  C     -3.10259000     -2.98393000      3.30802000
  O     -3.86107000     -3.70357000      4.07531000
  C      4.16949000      1.46402000     -3.04859000
  O      5.04728000      1.67337000     -3.95753000
  C     -4.14465000      3.37056000      3.19742000
  O     -4.81917000      3.98603000      4.07377000
  C     -4.95056000     -1.02036000      2.04616000
  O     -6.18537000     -0.95969000      2.40914000
  C      2.27433000     -3.98696000      2.27444000
  O      2.74931000     -5.02046000      2.93363000
  C     -3.83773000     -3.49281000     -0.37032300
  O     -4.92282000     -4.21136000     -0.12131700
  C      3.93216000     -3.21443000     -1.55098000
  O      4.86284000     -4.13017000     -1.80796000
  C     -1.11122000      2.45224000     -4.40398000
  O     -1.37701000      3.08305000     -5.55276000
  C      0.20206200      0.36682600      5.66009000
  O      0.34377900      0.24764100      7.05343000
  C      4.98891000     -0.30657500     -0.90480800
  O      6.24493000     -0.44173000     -1.12764000
  C     -3.71569000      3.44443000     -2.55150000
  O     -4.70053000      3.77011000     -3.27033000

