#B3LYP/6-31+G(d) OPT FREQ

110, Energy = -12591.21211112 au

0 1
 Ni     -0.16602500     -3.42362000     -2.16538000
 Ni     -1.42068000      0.00807553     -1.10441000
 Ni      0.07392770     -4.11961000      0.24298200
 Ni     -0.24589800      4.36320000      0.00057892
 Ni     -1.04079000      2.58877000     -1.91247000
 Ni     -3.33049000      0.86085300      0.80398700
 Ni     -1.07874000     -0.65606200      1.35862000
 Ni      0.07245280      3.64702000      2.42063000
 Ni      0.18791700     -0.87539200     -2.96994000
 Ni      2.96901000     -0.57556100     -0.57600300
 Ni      0.56061700     -1.52975000     -0.46881000
 Ni      2.24232000     -2.38648000     -2.36216000
 Ni      3.41744000      1.85409000     -1.41285000
 Ni      1.77888000     -0.37858500      3.80730000
 Ni      1.33769000      0.28311000      1.26795000
 Ni      2.66688000      0.06902800     -3.06696000
 Ni      1.44889000      3.42314000     -1.99026000
 Ni     -2.27078000     -1.86946000     -2.83501000
 Ni      3.34300000     -1.31189000      1.91423000
 Ni     -1.97385000     -2.53228000     -0.45741100
 Ni      3.80261000      1.29439000      1.15746000
 Ni      0.97988900      0.94808200     -1.21136000
 Ni     -1.83727000      0.80180400     -3.62808000
 Ni     -3.86538000     -1.04070000     -1.09319000
 Ni      2.08673000      2.16601000      3.08110000
 Ni     -0.29313900      1.10323000      3.34363000
 Ni      2.52918000     -3.12440000      0.20179900
 Ni     -1.57785000     -3.13015000      2.17344000
 Ni     -2.68690000      3.34624000      0.03672140
 Ni      1.92897000      2.94447000      0.48755900
 Ni     -2.31557000      2.74708000      2.42873000
 Ni     -2.70485000      0.05401850      3.23674000
 Ni      0.67417100      1.64330000     -3.67039000
 Ni     -0.64624100      1.81374000      0.61926800
 Ni     -3.51700000     -1.66202000      1.52491000
 Ni     -0.74143100     -1.35048000      3.86086000
 Ni     -3.47767000      1.52395000     -1.83259000
 Ni      0.92204000     -2.23427000      1.99788000
  C      3.37063000     -1.67621000      3.94990000
  O      4.28807000     -2.02941000      4.87330000
  C     -5.41805000     -0.79802900      0.21958100
  O     -6.69318000     -1.08766000     -0.03269470
  C      0.20119500      4.20630000     -3.21196000
  O      0.14718100      5.31213000     -3.95651000
  C     -2.58622000      2.72194000     -2.99047000
  O     -3.07887000      3.65907000     -3.73180000
  C     -4.25543000      2.84171000      2.34706000
  O     -5.10431000      3.45771000      3.13928000
  C      1.17437000     -0.86600300     -4.69825000
  O      1.19723000     -1.28720000     -5.97850000
  C      4.16074000     -2.77855000     -0.96192000
  O      5.34869000     -3.37932000     -1.18101000
  C      2.61799000      1.95920000     -3.63699000
  O      3.25992000      2.42250000     -4.66304000
  C      5.11452000     -0.59157800      1.11311000
  O      6.38080000     -0.92235800      1.42031000
  C      1.39025000      5.55891000     -0.34467500
  O      1.25524000      6.86079000     -0.36903800
  C      4.64262000      2.99021000      1.31567000
  O      5.82339000      3.36491000      1.70360000
  C      4.97614000      0.81459800     -1.39111000
  O      6.23954000      0.90972500     -1.78837000
  C     -2.19213000      5.11690000     -0.91692100
  O     -2.98100000      6.16963000     -0.81173800
  C      2.95042000     -3.87866000      1.95968000
  O      3.58820000     -4.94835000      2.39135000
  C     -2.11648000      0.92145900      4.85115000
  O     -2.65634000      1.29956000      6.01486000
  C      3.16192000      3.73258000     -1.18722000
  O      3.99281000      4.68227000     -1.43517000
  C     -0.73510700      1.73644000     -5.02486000
  O     -0.89464500      2.16728000     -6.30557000
  C     -4.27662000      0.24458600     -3.12949000
  O     -5.39937000      0.45612900     -3.87906000
  C      3.35437000      1.12184000      4.23276000
  O      4.09150000      1.50951000      5.29141000
  C      1.84256000     -3.99908000     -3.33787000
  O      2.41846000     -4.89196000     -4.09710000
  C      0.29433300      2.74131000      4.04797000
  O      0.16922100      3.19812000      5.25398000
  C     -1.52738000     -4.48499000     -1.00256000
  O     -2.26743000     -5.62445000     -1.21506000
  C      1.96324000      3.88701000      2.22088000
  O      2.61072000      4.94838000      2.59161000
  C     -3.79800000     -2.57212000     -2.18091000
  O     -4.63151000     -3.34512000     -2.73628000
  C      4.06056000     -1.30276000     -3.35385000
  O      4.91413000     -1.53287000     -4.35113000
  C     -4.29169000      2.22766000     -0.27287600
  O     -5.53397000      2.58863000     -0.25082300
  C      0.32922300     -0.38232500      5.11164000
  O      0.42224400     -0.45555000      6.39106000
  C     -4.41050000     -0.26895200      2.48409000
  O     -5.55026000     -0.30355000      3.07617000
  C     -0.99687400     -3.35120000     -3.90858000
  O     -1.21863000     -4.32079000     -4.82929000
  C      1.59046000     -4.99735000     -0.87026000
  O      1.82130000     -6.32813000     -0.92102800
  C     -2.17733000     -1.00080000     -4.69386000
  O     -2.69054000     -1.29861000     -5.91116000
  C     -2.41824000     -2.24348000      3.73966000
  O     -2.94960000     -2.87323000      4.74095000
  C     -3.62328000     -3.69710000      1.18468000
  O     -4.65660000     -4.51188000      1.42443000
  C     -0.63841800     -5.04420000      1.91800000
  O     -0.88854900     -6.29567000      2.34502000
  C     -1.51643000      4.51894000      2.09388000
  O     -1.77887000      5.59164000      2.73899000
  C      0.58328700     -3.10660000      3.93626000
  O      0.98349900     -4.06476000      4.78358000

