#B3LYP/6-31+G(d) OPT FREQ

110, Energy = -12409.92574534 au

0 1
 Ni      2.62000000     -1.94554000     -2.53604000
 Ni     -0.72547700     -1.08238000     -1.04218000
 Ni      3.80957000     -1.64630000     -0.17652600
 Ni     -3.71564000      2.20001000     -0.00138598
 Ni     -2.83076000      0.48244100     -1.86851000
 Ni     -2.12266000     -1.94216000      1.12615000
 Ni      0.36732200     -0.84873800      1.30585000
 Ni     -2.71041000      2.46684000      2.46226000
 Ni      0.57007300     -0.24701200     -3.18142000
 Ni      2.33770000      2.78058000     -1.31366000
 Ni      1.69530000     -0.04971970     -0.83005600
 Ni      3.11497000      0.83584000     -2.93870000
 Ni     -0.02176360      4.14599000     -1.94063000
 Ni      1.70914000      2.03831000      3.21718000
 Ni      0.72653000      1.72129000      0.81604000
 Ni      0.97527400      2.36610000     -3.71434000
 Ni     -2.50754000      3.05209000     -2.26773000
 Ni      0.27455700     -2.96107000     -2.72187000
 Ni      3.16998000      2.61646000      1.06345000
 Ni      1.35922000     -2.69399000     -0.38600800
 Ni      1.21913000      4.31258000      0.48077000
 Ni     -0.35054600      1.49963000     -1.50216000
 Ni     -1.84683000     -1.42471000     -3.46320000
 Ni     -1.06986000     -3.77395000     -0.52730100
 Ni     -0.34814900      3.49138000      2.54809000
 Ni     -0.59087200      0.96319600      3.01226000
 Ni      4.09529000      0.94436500     -0.61297100
 Ni      2.46220000     -2.42979000      2.01279000
 Ni     -4.11966000     -0.28452300      0.47958200
 Ni     -1.35617000      3.35141000      0.15270900
 Ni     -3.15423000     -0.06257450      2.84586000
 Ni     -0.91066700     -1.81836000      3.45514000
 Ni     -1.51833000      1.23142000     -3.99668000
 Ni     -1.68794000      0.69437500      0.62773700
 Ni      0.02446230     -3.55354000      1.89273000
 Ni      1.55148000     -0.60332200      3.82797000
 Ni     -3.21686000     -2.10597000     -1.19928000
 Ni      2.83050000      0.15441900      1.53007000
  C      5.51961000     -2.35321000      0.09567030
  O      6.58065000     -3.01455000     -0.15385100
  C      2.54090000     -3.93025000     -2.88112000
  O      3.19186000     -4.73031000     -3.70192000
  C     -3.23539000      1.80083000     -3.47820000
  O     -4.22420000      2.03199000     -4.28988000
  C     -3.74658000      3.94349000     -0.96911600
  O     -4.78070000      4.84926000     -1.11402000
  C     -2.34282000      2.32807000      4.42813000
  O     -2.84359000      3.07872000      5.38354000
  C     -4.38791000      1.69769000      1.77864000
  O     -5.55256000      2.10119000      2.19537000
  C      2.26691000     -3.75664000      3.34840000
  O      2.99424000     -4.63422000      3.97663000
  C      3.76802000      2.14129000      3.10754000
  O      4.71781000      2.54485000      3.98925000
  C     -3.14643000     -4.14528000     -0.76691900
  O     -3.87881000     -5.23338000     -1.06923000
  C      2.30639000      1.36246000     -4.67395000
  O      2.96729000      1.67504000     -5.85252000
  C     -5.12290000      0.68070800     -1.23282000
  O     -6.37652000      0.81005500     -1.70722000
  C      1.67957000      3.88646000     -2.76888000
  O      2.34864000      4.88529000     -3.30662000
  C     -1.47222000     -3.41941000     -3.84089000
  O     -1.76086000     -4.28678000     -4.85272000
  C      4.08118000     -1.06617000      2.79753000
  O      5.27479000     -1.10991000      3.39417000
  C      3.09457000      4.39265000      0.29240400
  O      3.94610000      5.30314000      0.42538100
  C      0.13440600      5.51245000     -0.52447300
  O      0.27786500      6.89353000     -0.50322600
  C     -4.97144000     -2.03713000      0.52022100
  O     -6.21213000     -2.49281000      0.65613200
  C      2.57494000     -4.13619000      0.29975100
  O      3.13395000     -5.31300000      0.02770380
  C     -0.48116400      2.50521000     -5.03940000
  O     -0.59762200      3.03036000     -6.29929000
  C      5.32598000      1.19898000      0.80180100
  O      6.64029000      1.29753000      0.91039900
  C      4.15238000      2.16661000     -2.04268000
  O      5.19179000      2.82400000     -2.46051000
  C     -1.51823000      4.53986000     -3.10793000
  O     -1.96599000      5.76483000     -3.55095000
  C     -0.31038600     -3.52518000      4.30968000
  O     -0.42228100     -4.24704000      5.39968000
  C      0.01929620     -4.99006000     -1.67259000
  O      0.03533320     -6.28513000     -1.99543000
  C     -0.40091500     -5.33119000      1.29449000
  O     -0.45302200     -6.55524000      1.76052000
  C     -4.57326000     -1.20352000      3.57636000
  O     -5.36370000     -1.19605000      4.57953000
  C     -1.36815000     -0.41448900      4.79803000
  O     -1.65074000     -0.36367700      6.11767000
  C     -3.99718000     -1.66354000     -3.09142000
  O     -5.05328000     -2.16019000     -3.77533000
  C      1.33018000      4.61349000      2.79544000
  O      1.49277000      5.70926000      3.58396000
  C     -2.05665000      4.13230000      1.76882000
  O     -2.58470000      5.30962000      1.91792000
  C      0.76597000      2.00758000      4.89848000
  O      0.76188800      2.53728000      6.10880000
  C      2.35031000     -0.71945100      5.58066000
  O      2.70976000     -1.14409000      6.71635000
  C      1.25160000     -1.59603000     -4.57865000
  O      1.45049000     -1.72396000     -5.89953000
  C      4.43364000     -0.85513600     -2.77959000
  O      5.52501000     -1.11815000     -3.56981000
  C     -2.58106000     -3.48160000      2.28005000
  O     -3.55910000     -4.26476000      2.70330000
  C     -1.62884000     -0.35292000     -5.23105000
  O     -2.22404000     -0.51259000     -6.44809000

