#B3LYP/6-31+G(d) OPT FREQ

110, Energy = -12770.32639922 au

0 1
 Ni     -4.01867000     -0.56544700     -1.36819000
 Ni     -0.86172400      1.53169000     -0.84994500
 Ni     -3.89381000     -1.38424000      1.10518000
 Ni      3.71879000      1.71867000     -1.23803000
 Ni      1.38842000      2.35057000     -2.48889000
 Ni      0.01691760      3.49965000      1.21782000
 Ni     -0.70060300      0.66119600      1.57411000
 Ni      3.85270000      0.73777500      1.19777000
 Ni     -1.83359000     -0.04539880     -3.02000000
 Ni     -0.05241210     -2.85639000     -1.14505000
 Ni     -1.57513000     -0.91126400     -0.31362400
 Ni     -2.46091000     -2.49813000     -2.31479000
 Ni      2.10664000     -2.31357000     -2.66965000
 Ni      0.94654000     -2.29751000      3.28100000
 Ni      0.78443100     -1.30862000      0.76200600
 Ni     -0.28391500     -1.98567000     -3.72621000
 Ni      2.91222000      0.00732254     -3.16673000
 Ni     -3.31257000      1.82019000     -1.91999000
 Ni      0.16715000     -3.84729000      1.38366000
 Ni     -3.16598000      1.07826000      0.56427100
 Ni      2.25507000     -3.32450000      0.00350826
 Ni      0.62390000     -0.41232700     -1.70142000
 Ni     -1.08566000      2.49475000     -3.31093000
 Ni     -2.43269000      3.53206000     -0.03792000
 Ni      3.12452000     -1.73085000      1.83745000
 Ni      1.61790000      0.27271000      2.67151000
 Ni     -2.28712000     -3.31019000      0.17539000
 Ni     -2.93105000      0.10549300      3.06393000
 Ni      2.25347000      3.65344000     -0.25943100
 Ni      3.11222000     -0.83537500     -0.68488400
 Ni      2.35407000      2.72706000      2.21069000
 Ni      0.10169600      2.17554000      3.59090000
 Ni      0.58349000      0.44717300     -4.24107000
 Ni      1.47552000      1.15975000      0.19038000
 Ni     -2.23381000      2.58124000      2.53354000
 Ni     -0.63483400     -0.32093900      4.11279000
 Ni     -0.22350200      4.09006000     -1.39589000
 Ni     -1.46081000     -1.88978000      2.26577000
  C      1.84031000      4.43162000      1.40154000
  O      2.25446000      5.57788000      1.82685000
  C      4.30719000      3.29067000     -0.17107300
  O      5.43468000      4.02281000     -0.46606700
  C     -0.95541800     -0.55021800     -4.76265000
  O     -1.40126000     -0.57035400     -5.97944000
  C      0.60519500     -3.71445000     -4.02706000
  O      0.69905600     -4.37010000     -5.16383000
  C      2.80693000     -3.46281000      2.94836000
  O      3.62370000     -4.22664000      3.69386000
  C      4.18751000     -3.10127000      0.00164445
  O      5.24942000     -3.91084000     -0.08660730
  C      4.21854000      2.33500000      2.39184000
  O      5.29030000      2.90462000      3.06431000
  C      0.50326000      2.33733000     -4.37093000
  O      0.70211900      3.04809000     -5.42933000
  C     -4.00670000     -2.68906000     -0.84670100
  O     -5.01430000     -3.47453000     -1.05991000
  C      1.59588000      4.42512000     -1.87561000
  O      2.05644000      5.50906000     -2.36059000
  C      0.91934700     -0.87036700      5.12115000
  O      1.13581000     -0.97263100      6.44951000
  C     -2.19810000     -1.39346000      4.03995000
  O     -2.75458000     -2.08102000      4.97714000
  C      1.73226000     -4.48731000     -1.69978000
  O      1.96103000     -5.74444000     -2.12835000
  C      3.38217000     -0.49147100      3.64683000
  O      4.08429000     -0.44184700      4.78693000
  C     -4.21220000      3.54394000     -0.95223600
  O     -5.14248000      4.37602000     -1.47365000
  C      5.17986000     -0.79152200      1.08671000
  O      6.47781000     -0.85998800      1.40417000
  C      4.46120000      0.04840040     -1.82191000
  O      5.70929000     -0.13901300     -2.09819000
  C     -0.97923100      4.82823000      0.16676900
  O     -1.15918000      6.09490000      0.37783900
  C     -3.64436000      3.61197000      1.64385000
  O     -4.57494000      4.53375000      2.07173000
  C     -1.55563000      4.38425000     -2.75588000
  O     -1.82711000      5.53370000     -3.47086000
  C     -0.78646600      3.80129000      2.96667000
  O     -0.87464000      4.87823000      3.67716000
  C     -4.53648000      0.04819750     -3.25342000
  O     -5.73346000     -0.16463200     -3.78828000
  C     -4.58209000     -2.05507000      2.84032000
  O     -5.77403000     -2.55247000      3.01357000
  C      2.06930000     -0.42486700     -4.69312000
  O      2.56488000     -0.60515700     -5.90578000
  C      1.87267000      2.43149000      4.30537000
  O      2.33557000      2.92617000      5.49957000
  C      3.17780000      1.97214000     -3.07240000
  O      3.82748000      2.64028000     -3.97314000
  C     -2.72923000      1.70102000     -3.75900000
  O     -3.40259000      2.00683000     -4.82072000
  C     -4.82386000      0.31842700      0.08282790
  O     -6.02586000      0.76326300      0.26363500
  C     -1.52282000      1.41065000      4.49825000
  O     -1.90505000      1.75399000      5.68597000
  C      1.37559000     -5.34712000      1.21886000
  O      1.41734000     -6.63338000      1.46372000
  C     -0.26531100     -3.80355000      3.80679000
  O     -0.30228900     -4.65773000      4.82608000
  C     -4.34490000      1.49224000      3.09815000
  O     -5.31597000      1.68294000      3.98147000
  C     -2.20337000     -4.31945000      1.84201000
  O     -2.86569000     -5.39097000      2.32462000
  C     -2.71416000     -2.54530000     -4.27844000
  O     -3.44916000     -3.34611000     -5.04290000
  C      3.99383000     -2.19636000     -3.12448000
  O      4.77217000     -2.91705000     -3.97720000
  C     -1.52808000     -4.62175000     -1.47376000
  O     -1.65121000     -5.91550000     -1.82096000

