#B3LYP/6-31+G(d) OPT FREQ

246, Energy =   -372.43627874 au

0 1
 Au     -1.23225054      0.62007239     -0.19902609
 Au     -1.88154593     -2.11914082     -0.51156298
 Au     -3.65352722     -0.18327272      0.43824620
 Au     -3.10499882      2.40630762     -0.27528303
 Au      3.29199161     -0.78186144     -0.30682977
 Au      1.40386592      0.98074701     -1.04538381
 Au      0.84158569     -1.16592788      0.64902254
 Au      0.09525568     -3.69912238     -0.65200986
  P      5.62810439     -1.10318939     -0.59854502
  C      6.46622166     -1.61507174      0.93078506
  C      7.65410123     -2.35118631      0.95281196
  C      8.25909631     -2.67085339      2.15895439
  C      7.69583256     -2.25324603      3.35729843
  C      6.51909093     -1.51603826      3.34702130
  C      5.90630540     -1.20547263      2.14335939
  H      8.17318908     -2.50018559      4.29814366
  H      8.10665050     -2.67843533      0.02409788
  H      4.98232523     -0.63654623      2.13601353
  H      6.07553868     -1.18636691      4.27949660
  C      6.48987822      0.43726022     -1.05121098
  C      5.85452228      1.32289771     -1.92624666
  C      6.47985043      2.49349371     -2.32531819
  C      7.74081183      2.80829116     -1.83824133
  C      8.37533741      1.94398491     -0.95685775
  C      7.75899870      0.76433554     -0.56846074
  H      8.26871256      0.09460130      0.11450835
  H      8.22658187      3.72743645     -2.14383936
  H      9.35883462      2.18597209     -0.57106397
  H      4.86049335      1.08845725     -2.29189781
  H      9.17790176     -3.24535833      2.16151267
  C      6.20756262     -2.28237840     -1.85817020
  C      6.17396734     -3.65143913     -1.57578852
  C      6.59960762     -4.57577720     -2.51528306
  C      7.04770773     -4.14904592     -3.75860813
  C      7.05600887     -2.79433975     -4.06079260
  C      6.63641416     -1.86570970     -3.12027067
  H      7.38463379     -4.87220318     -4.49180385
  H      7.39639915     -2.45597142     -5.03261494
  H      6.65562315     -0.80982967     -3.36562948
  H      5.97715695      3.16462719     -3.01194280
  H      6.57881397     -5.63290129     -2.27605399
  H      5.82300711     -3.99122382     -0.60821888
  P      1.94245478     -5.14987039     -0.80351242
  C      3.26874887     -5.00003499      0.43873909
  C      4.37349347     -5.85808167      0.44247060
  C      5.35180470     -5.73766017      1.41794416
  C      5.24347416     -4.76280267      2.40174116
  C      4.15852307     -3.89826224      2.39966610
  C      3.18270532     -4.01664598      1.42213703
  H      6.00678081     -4.67482530      3.16602311
  H      4.46507422     -6.62333641     -0.32019445
  H      2.33201217     -3.34507829      1.42918545
  H      4.06704992     -3.13113840      3.16021491
  C      2.80376059     -4.87411309     -2.38305866
  C      2.83731450     -3.56731540     -2.87573449
  C      3.44228399     -3.28080724     -4.08758765
  C      4.01655311     -4.30191291     -4.83273542
  C      3.99564180     -5.60403544     -4.35155800
  C      3.39788259     -5.89081320     -3.13341444
  H      3.38445775     -6.91163780     -2.76939451
  H      4.48107127     -4.08206299     -5.78677190
  H      4.44686652     -6.40297956     -4.92833694
  H      2.37420968     -2.76998913     -2.30270593
  H      6.20089787     -6.41111989      1.41218952
  C      1.51498766     -6.91264359     -0.80123705
  C      1.75947912     -7.74219788      0.29563509
  C      1.32598288     -9.05954590      0.29054420
  C      0.63387406     -9.56322704     -0.80180379
  C      0.36770709     -8.74189148     -1.88975636
  C      0.79630158     -7.42469652     -1.88747297
  H      0.29782753    -10.59335326     -0.80393276
  H     -0.17881041     -9.12790600     -2.74239865
  H      0.57759272     -6.78442821     -2.73552985
  H      3.45619501     -2.26087291     -4.45508957
  H      1.53100204     -9.69385762      1.14525128
  H      2.29346825     -7.35811502      1.15728711
  P     -4.73551788      4.09321730     -0.49989083
  C     -6.40306645      3.38997216     -0.68003288
  C     -7.55604395      4.06895288     -0.27757699
  C     -8.80392333      3.48856060     -0.44404826
  C     -8.91939779      2.22749299     -1.01352255
  C     -7.78037009      1.54302344     -1.41493020
  C     -6.53218570      2.11955323     -1.24514170
  H     -9.89621454      1.77564391     -1.13934145
  H     -7.47500537      5.05291474      0.17028521
  H     -5.64138282      1.58097364     -1.55045917
  H     -7.86192711      0.55539728     -1.85476698
  C     -4.54140082      5.17241286     -1.94820727
  C     -3.33263121      5.86233613     -2.09058261
  C     -3.10027485      6.64890360     -3.20680847
  C     -4.06344804      6.74662969     -4.20324956
  C     -5.26173910      6.05815598     -4.07643306
  C     -5.50131477      5.27344482     -2.95789388
  H     -6.44181730      4.74198039     -2.86682633
  H     -3.87769821      7.35801822     -5.07838352
  H     -6.01665461      6.13043929     -4.85139757
  H     -2.57600174      5.78079366     -1.31573832
  H     -9.69090744      4.02375313     -0.12558378
  C     -4.88521326      5.21327473      0.92135935
  C     -4.70237388      4.66758909      2.19564486
  C     -4.82297412      5.45883105      3.32664501
  C     -5.11857071      6.81029894      3.19785232
  C     -5.29167730      7.36426183      1.93713932
  C     -5.17771784      6.57345087      0.80326733
  H     -5.20948134      7.43155356      4.08097599
  H     -5.51827906      8.41904332      1.83381924
  H     -5.31270219      7.01393807     -0.17788562
  H     -2.16189302      7.18341773     -3.30310125
  H     -4.68149377      5.02161717      4.30831988
  H     -4.45780551      3.61458333      2.29396320
  P      0.07849296     -2.00955591      2.83756010
  C      1.20386866     -1.60810061      4.21376832
  C      0.92948768     -2.00158860      5.52767582
  C      1.79871439     -1.67154650      6.55454343
  C      2.94841090     -0.93914109      6.28780126
  C      3.22492263     -0.53700144      4.98921523
  C      2.35886891     -0.86889921      3.95862455
  H      3.62556765     -0.67822590      7.09257006
  H      0.02957663     -2.56666260      5.74426420
  H      2.57498235     -0.54736514      2.94514715
  H      4.11353437      0.04560317      4.77680517
  C     -0.09316580     -3.81968222      2.92612333
  C     -1.14605820     -4.43028962      2.23462316
  C     -1.22250088     -5.81029050      2.13009514
  C     -0.25189556     -6.60703170      2.72278994
  C      0.79186451     -6.01552788      3.42047172
  C      0.87681516     -4.63425630      3.51507607
  H      1.70360948     -4.18739306      4.05479357
  H     -0.31058604     -7.68581494      2.64035472
  H      1.55013660     -6.63141254      3.89012803
  H     -1.91842598     -3.81423907      1.78971828
  H      1.57667685     -1.98442814      7.56812016
  C     -1.51280933     -1.37327882      3.47337085
  C     -1.80918541     -0.03041501      3.22694124
  C     -2.98419261      0.53819071      3.69476555
  C     -3.87644374     -0.22757606      4.43441518
  C     -3.58416970     -1.55774734      4.69962007
  C     -2.41764336     -2.13250085      4.21662208
  H     -4.79352805      0.21375486      4.80676298
  H     -4.27168179     -2.15648560      5.28544578
  H     -2.21250374     -3.17660204      4.42249090
  H     -2.04013536     -6.26414788      1.58227288
  H     -3.19352486      1.58307131      3.49520788
  H     -1.10158395      0.57633273      2.67328286
  P      2.40920546      3.05540294      0.23544398
  C      1.02007750      4.02640582      0.92336720
  C      0.03283113      3.32313434      1.62175597
  C     -1.09589615      3.96800595      2.10286945
  C     -1.26045508      5.33075711      1.89043178
  C     -0.28723801      6.04154391      1.20308520
  C      0.84418660      5.39671593      0.72347987
  H     -2.14359723      5.83532071      2.26362530
  H      0.15483108      2.25855150      1.78986863
  H      1.59520994      5.96623625      0.18865937
  H     -0.40714454      7.10634380      1.03955816
  C      3.38653312      4.28118834     -0.70318658
  C      3.44249688      4.16621727     -2.09254182
  C      4.14472115      5.08770940     -2.85489855
  C      4.81853644      6.12957496     -2.23245149
  C      4.79205144      6.24104904     -0.84823901
  C      4.08199078      5.32664767     -0.08639653
  H      4.07078985      5.41837404      0.99389772
  H      5.36931693      6.85067528     -2.82479945
  H      5.32586130      7.04726851     -0.35857630
  H      2.92838564      3.34458844     -2.57937965
  H     -1.84394519      3.40758630      2.65200251
  C      3.48462817      2.79201522      1.69386522
  C      3.07432706      2.96690974      3.01567424
  C      3.95181320      2.71802074      4.06154906
  C      5.24483207      2.28201531      3.80566794
  C      5.65896938      2.08838302      2.49347617
  C      4.78436292      2.33659454      1.44891906
  H      5.93034949      2.09931537      4.62477330
  H      6.66639376      1.74754889      2.28226732
  H      5.11288700      2.19205304      0.42545119
  H      4.16194703      4.99217986     -3.93460185
  H      3.62344189      2.87355919      5.08284908
  H      2.07080744      3.31356029      3.23382651
  P      0.35547959      1.81866173     -3.10875742
  C     -1.39739954      1.42503003     -3.42870304
  C     -2.39428402      2.40109666     -3.49652022
  C     -3.71899918      2.04022111     -3.70064986
  C     -4.06788188      0.70313178     -3.83099670
  C     -3.08852096     -0.27781715     -3.73902009
  C     -1.76518128      0.07926494     -3.53393151
  H     -5.09982961      0.42875520     -4.01418976
  H     -2.13588772      3.45040415     -3.41385602
  H     -1.00336554     -0.69008142     -3.46996268
  H     -3.35423655     -1.32417917     -3.83433251
  C      1.22348362      1.06033854     -4.51661648
  C      2.57084991      0.73566292     -4.34444407
  C      3.30575151      0.17424973     -5.37601528
  C      2.69462027     -0.08780486     -6.59559506
  C      1.35285272      0.21959567     -6.77651993
  C      0.62049899      0.79487824     -5.74907814
  H     -0.42503964      1.03588703     -5.90303053
  H      3.26400397     -0.53225707     -7.40337544
  H      0.87301365      0.01473227     -7.72649574
  H      3.04277345      0.92828855     -3.38698452
  H     -4.47781135      2.81118126     -3.77210339
  C      0.45146933      3.61027324     -3.43828675
  C      0.07621833      4.48402641     -2.41322184
  C      0.20113011      5.85472105     -2.57269667
  C      0.70237915      6.37410970     -3.75919535
  C      1.06812524      5.51640146     -4.78722616
  C      0.94704296      4.14381797     -4.62999383
  H      0.81197692      7.44540403     -3.87887179
  H      1.45652427      5.91673883     -5.71646595
  H      1.24419779      3.48361955     -5.43643869
  H      4.35568992     -0.05300570     -5.22923888
  H     -0.08124670      6.51884534     -1.76414734
  H     -0.30362886      4.08038093     -1.48026261
  P     -5.68079670     -1.25825439      0.98258214
  C     -5.66770767     -2.60139778      2.20913462
  C     -6.42070682     -2.57466618      3.38388840
  C     -6.35448962     -3.63041592      4.28234764
  C     -5.53542454     -4.71997196      4.02156630
  C     -4.77936897     -4.75358671      2.85660461
  C     -4.84099993     -3.70110243      1.95876638
  H     -5.48570131     -5.54336538      4.72414124
  H     -7.06342779     -1.72850571      3.59703528
  H     -4.25096414     -3.72937663      1.04795981
  H     -4.14168864     -5.60464116      2.64765684
  C     -6.45179135     -2.04001937     -0.46390472
  C     -6.08443787     -1.59226241     -1.73438652
  C     -6.66083914     -2.13635571     -2.87094993
  C     -7.61023216     -3.14243945     -2.75238633
  C     -7.97176362     -3.60757274     -1.49532570
  C     -7.39680974     -3.06446889     -0.35669905
  H     -7.67447279     -3.44519998      0.61955960
  H     -8.06160721     -3.56910992     -3.64027566
  H     -8.70438248     -4.40041426     -1.39916749
  H     -5.33137172     -0.81666601     -1.82493075
  H     -6.94890976     -3.60080279      5.18804389
  C     -6.91904073     -0.07632083      1.59799847
  C     -6.47102540      1.13131913      2.13646371
  C     -7.36825407      2.06565209      2.62835269
  C     -8.73090998      1.80555386      2.58572441
  C     -9.19038719      0.61157977      2.04554579
  C     -8.29388537     -0.32376466      1.55303068
  H     -9.43487793      2.53548979      2.96750129
  H    -10.25405376      0.40793462      2.00507353
  H     -8.66402170     -1.24837650      1.12527063
  H     -6.36547678     -1.77861581     -3.85067195
  H     -7.00262051      2.99991618      3.03937271
  H     -5.40637299      1.33801134      2.16265874

