#B3LYP/6-31+G(d) OPT FREQ

246, Energy =   -372.42645868 au

0 1
 Au     -1.70874189      2.26018886     -0.10635616
 Au     -2.58561522     -0.49599793     -4.38983631
 Au     -1.61902291      0.43708329     -2.10234848
 Au      0.08710884     -0.97687153      2.68491272
 Au     -4.12941914     -0.50806081     -2.33741659
 Au     -0.27217376     -0.04861551      0.26480183
 Au      0.59795829      1.82522760     -1.63029331
 Au      1.80899535     -1.69254277      0.76925203
  P     -2.67360799      4.38044873      0.31648274
  C     -4.36429025      4.54036590     -0.33105348
  C     -5.07949163      5.74065926     -0.26314650
  C     -6.34008693      5.83689515     -0.83014188
  C     -6.89605738      4.74871103     -1.49032159
  C     -6.18610303      3.56002963     -1.58280504
  C     -4.93144804      3.45704681     -1.00354390
  H     -7.87949597      4.82981836     -1.93793934
  H     -4.64255315      6.60475545      0.22470197
  H     -4.38127465      2.52404906     -1.07131612
  H     -6.60976752      2.70874946     -2.10317959
  C     -1.82078834      5.64928885     -0.67344309
  C     -1.30618704      5.27910966     -1.91794632
  C     -0.75200152      6.22508357     -2.76416010
  C     -0.70762604      7.55819506     -2.37892362
  C     -1.20245607      7.93602680     -1.13814470
  C     -1.75469088      6.99017899     -0.28803278
  H     -2.13843189      7.29551164      0.67858157
  H     -0.28243813      8.30082904     -3.04346912
  H     -1.16245515      8.97446892     -0.83065307
  H     -1.34901055      4.23952129     -2.22638672
  H     -6.88748326      6.76989376     -0.76435395
  C     -2.65615715      5.04972828      2.00504243
  C     -3.80563225      5.34587003      2.73997881
  C     -3.70463365      5.79121745      4.05055761
  C     -2.45995260      5.93519281      4.64699118
  C     -1.30956668      5.63371883      3.92850858
  C     -1.40666898      5.19169532      2.62007432
  H     -2.38508805      6.28087637      5.67117148
  H     -0.33455690      5.74211220      4.38952478
  H     -0.50647521      4.95591809      2.06123778
  H     -0.35669152      5.92174298     -3.72702502
  H     -4.60496580      6.02606602      4.60633931
  H     -4.78336159      5.23665865      2.28596641
  P      1.16503232     -4.19831888      0.12297800
  C      2.43867728     -5.45577992     -0.26706495
  C      2.74437984     -6.53297348      0.56564049
  C      3.72280636     -7.44643930      0.20034301
  C      4.41504630     -7.29383230     -0.99269984
  C      4.13262905     -6.21454257     -1.82076885
  C      3.15578383     -5.30203877     -1.45861475
  H      5.17553987     -8.01171238     -1.27616029
  H      2.21273894     -6.66341371      1.50106752
  H      2.93898002     -4.46042201     -2.10830457
  H      4.67347026     -6.08345672     -2.75109548
  C     -0.05883203     -4.55375652     -1.19765298
  C     -0.89166240     -3.52471433     -1.63880263
  C     -1.86785450     -3.76508766     -2.59345777
  C     -2.01599993     -5.03078680     -3.14089509
  C     -1.17624426     -6.05700294     -2.73088562
  C     -0.20767692     -5.82283138     -1.76701104
  H      0.44352609     -6.63196018     -1.45724414
  H     -2.77782657     -5.21383384     -3.88939120
  H     -1.27758338     -7.04681645     -3.16044300
  H     -0.76842122     -2.52528022     -1.23316977
  H      3.94351092     -8.28302707      0.85318921
  C      0.34764423     -4.91231792      1.59945575
  C      0.78356030     -4.46512763      2.84978406
  C      0.20523838     -4.93352831      4.01793395
  C     -0.83795080     -5.84763492      3.95775107
  C     -1.28541518     -6.29818197      2.72331420
  C     -0.69647870     -5.84002952      1.55401429
  H     -1.29922362     -6.20626608      4.87052561
  H     -2.09950901     -7.01163436      2.66808351
  H     -1.05951556     -6.20290589      0.59951527
  H     -2.51431347     -2.95716591     -2.91745656
  H      0.56701537     -4.58001461      4.97630905
  H      1.58995689     -3.74307453      2.90405505
  P     -0.23178570     -0.72924569      5.02521919
  C      1.32420462     -0.08730334      5.71881698
  C      1.39851922      0.92867460      6.67204946
  C      2.62884653      1.33842762      7.16502983
  C      3.79870390      0.73788695      6.71811806
  C      3.73714879     -0.26750627      5.76183955
  C      2.50987465     -0.67033428      5.26085318
  H      4.75711850      1.05524150      7.11154055
  H      0.49297411      1.40436443      7.03057679
  H      2.46416668     -1.44485975      4.50187916
  H      4.64642790     -0.73646480      5.40353788
  C     -0.66310059     -2.07841098      6.17186408
  C     -2.00211008     -2.44679059      6.33450445
  C     -2.34504881     -3.52767269      7.13121308
  C     -1.35705385     -4.26054640      7.77488900
  C     -0.02411277     -3.90443340      7.62122255
  C      0.32338483     -2.82604963      6.82085433
  H      1.36771615     -2.55619991      6.71161014
  H     -1.62575169     -5.10462570      8.39882808
  H      0.75176005     -4.46734922      8.12697821
  H     -2.78038545     -1.87010851      5.84754436
  H      2.67304987      2.12751027      7.90666342
  C     -1.48401689      0.54595900      5.34882969
  C     -1.95333458      1.28993066      4.26435295
  C     -2.91758438      2.26817279      4.43817843
  C     -3.42745662      2.52276886      5.70368141
  C     -2.97220458      1.78973454      6.79140541
  C     -2.01134979      0.80527932      6.61783892
  H     -4.18190867      3.28902914      5.83955918
  H     -3.37110095      1.98177869      7.78063086
  H     -1.67593245      0.22581608      7.47036692
  H     -3.38830754     -3.79610211      7.25096744
  H     -3.27269408      2.83076734      3.58265473
  H     -1.56217963      1.09015076      3.27208880
  P     -5.47317242     -0.79920094     -0.36655104
  C     -6.24628298      0.62064113      0.47208019
  C     -7.54371395      1.02374185      0.14441320
  C     -8.11366165      2.13087817      0.75450771
  C     -7.39740038      2.85337516      1.69886530
  C     -6.10083655      2.47350012      2.01747762
  C     -5.52210776      1.37640192      1.39934327
  H     -7.84646594      3.71230316      2.18336190
  H     -8.11391145      0.45999457     -0.58535369
  H     -4.50339541      1.09630599      1.64830918
  H     -5.53603674      3.03233428      2.75474030
  C     -4.48296997     -1.55727261      0.96586559
  C     -3.29050994     -2.19013429      0.61914267
  C     -2.51538625     -2.82431770      1.57704453
  C     -2.92121234     -2.83535250      2.90444886
  C     -4.10772272     -2.20897692      3.26325380
  C     -4.88364430     -1.57672631      2.30518311
  H     -5.80919510     -1.09720687      2.60205842
  H     -2.32154698     -3.34263437      3.65152023
  H     -4.43938741     -2.22032557      4.29502396
  H     -2.97324491     -2.19208733     -0.41687625
  H     -9.12325201      2.42689691      0.49445283
  C     -6.82892078     -1.99385508     -0.57141028
  C     -6.88049763     -2.73904466     -1.75114817
  C     -7.87226122     -3.68757913     -1.94560546
  C     -8.82708547     -3.90313418     -0.96190032
  C     -8.78613527     -3.16853427      0.21636117
  C     -7.79467977     -2.22155244      0.41431080
  H     -9.60483588     -4.64237087     -1.11290423
  H     -9.53087133     -3.33401398      0.98628180
  H     -7.77193397     -1.65279696      1.33718251
  H     -1.60369844     -3.32721476      1.28081541
  H     -7.90044707     -4.25682052     -2.86747804
  H     -6.13568199     -2.56748133     -2.52183370
  P      4.21254523     -1.82822429      0.41705023
  C      5.48795165     -0.65942194      1.01833522
  C      5.84952204     -0.65159076      2.36827037
  C      6.79133468      0.24671081      2.84474536
  C      7.38596803      1.15943373      1.98269273
  C      7.02264645      1.17343619      0.64318670
  C      6.07655877      0.27766598      0.16649959
  H      8.12996916      1.85433505      2.35341401
  H      5.40312659     -1.36402277      3.05274998
  H      5.80298680      0.30134263     -0.88138265
  H      7.47950462      1.88068623     -0.03990057
  C      4.58539253     -1.98222775     -1.35758841
  C      3.51824882     -1.89496914     -2.25512227
  C      3.72549244     -1.99699125     -3.62206987
  C      5.00716812     -2.20109924     -4.11540528
  C      6.07977115     -2.28044239     -3.23609994
  C      5.87488443     -2.16076727     -1.86978302
  H      6.72515841     -2.19291743     -1.19851189
  H      5.17003352     -2.29239172     -5.18285499
  H      7.08343031     -2.42930242     -3.61690538
  H      2.51465223     -1.73972723     -1.87289525
  H      7.06843406      0.22729179      3.89251157
  C      4.76764889     -3.37861377      1.20218363
  C      4.29718453     -3.61738510      2.49757454
  C      4.67881978     -4.75065526      3.19744977
  C      5.53811976     -5.66902581      2.60992670
  C      6.00021003     -5.45090905      1.31962185
  C      5.61666104     -4.31777592      0.61752483
  H      5.84009265     -6.55661653      3.15306334
  H      6.66161715     -6.17023963      0.85082879
  H      5.97387012     -4.17714624     -0.39538610
  H      2.88540438     -1.91796402     -4.30233378
  H      4.30280043     -4.91653829      4.20048825
  H      3.62047041     -2.90430083      2.95710350
  P     -0.92792443     -0.59999390     -6.11342593
  C      0.00066213     -2.16665217     -6.07962241
  C      0.34738398     -2.89031728     -7.22168581
  C      1.03936465     -4.08770639     -7.11101220
  C      1.39207455     -4.57947182     -5.86239659
  C      1.04796424     -3.86994341     -4.71881894
  C      0.35592782     -2.67459172     -4.82596777
  H      1.93058014     -5.51604081     -5.77727179
  H      0.07492301     -2.51664510     -8.20195423
  H      0.08145590     -2.12690784     -3.92966802
  H      1.31220309     -4.25348601     -3.73986042
  C      0.36786288      0.62442032     -5.72139950
  C     -0.01102967      1.83047654     -5.12738314
  C      0.93767498      2.78662654     -4.79385085
  C      2.28161679      2.54991528     -5.05502917
  C      2.67052067      1.35496006     -5.64367118
  C      1.72249361      0.39813910     -5.97426937
  H      2.03690039     -0.53107610     -6.43574684
  H      3.02433006      3.29735047     -4.80157889
  H      3.71810380      1.16779656     -5.85001244
  H     -1.06008957      2.02458673     -4.93400789
  H      1.30307390     -4.63859344     -8.00644272
  C     -1.30678888     -0.32336293     -7.86943435
  C     -2.35782637     -1.06170029     -8.42544159
  C     -2.71033593     -0.89048991     -9.75395366
  C     -2.02942058      0.03002182    -10.54037143
  C     -0.99551411      0.77743582     -9.99390602
  C     -0.63352833      0.60496975     -8.66637080
  H     -2.30829875      0.16740484    -11.57841845
  H     -0.46527769      1.50008870    -10.60354790
  H      0.17622970      1.19266595     -8.24908207
  H      0.62594422      3.72487668     -4.34943219
  H     -3.52160002     -1.47289116    -10.17518305
  H     -2.89708034     -1.77383338     -7.80877145
  P      2.48543690      3.14396100     -1.00513843
  C      2.40077367      4.96203228     -1.11766725
  C      1.97644747      5.75365799     -0.04834084
  C      1.93157871      7.13374907     -0.16990455
  C      2.30063398      7.74344915     -1.36098665
  C      2.69605705      6.96474274     -2.44063112
  C      2.73862617      5.58492239     -2.32373717
  H      2.27676987      8.82304923     -1.44926038
  H      1.69478447      5.29216100      0.89134993
  H      3.05543928      4.98488449     -3.16969941
  H      2.97621918      7.43308789     -3.37691820
  C      4.07954865      2.76025445     -1.78644850
  C      4.18180613      1.60922632     -2.57028645
  C      5.36724385      1.30233435     -3.22211863
  C      6.46857324      2.13774244     -3.09343396
  C      6.38103805      3.28161175     -2.31054010
  C      5.19538326      3.59579947     -1.66508946
  H      5.13005814      4.50119393     -1.07262804
  H      7.39268963      1.89980231     -3.60669349
  H      7.23693980      3.93868815     -2.21021390
  H      3.32235504      0.95501823     -2.67559858
  H      1.61060531      7.73497610      0.67292693
  C      2.72029232      2.86076893      0.78119997
  C      1.58229590      2.80526416      1.59165486
  C      1.68535226      2.60422414      2.95815827
  C      2.93694949      2.45707457      3.54041552
  C      4.07449579      2.50173156      2.74797593
  C      3.96990841      2.70077946      1.37937100
  H      3.02521535      2.30973770      4.60984996
  H      5.05366541      2.38140090      3.19714688
  H      4.86842082      2.73088178      0.77456966
  H      5.42876090      0.41170830     -3.83649107
  H      0.78886482      2.56504124      3.56722865
  H      0.60193591      2.92259585      1.14333386

