#B3LYP/6-31+G(d) OPT FREQ

246, Energy =   -372.44543770 au

0 1
 Au     -0.33653696     -1.12993781     -0.07022974
 Au      2.35970112     -0.05418316     -0.59995939
 Au     -0.01292962      1.45751446      0.02500861
 Au      1.53558173     -0.17608394      1.87292582
 Au     -2.07945341      0.42577609     -1.65167787
 Au     -2.47015175      0.44547894      1.00615157
 Au      3.04412084      0.04937530     -3.18829714
 Au      4.89404525     -0.32513139     -1.44926712
  P      1.72859163      0.05896167     -5.17845254
  C      2.56053736      0.45411662     -6.74423345
  C      3.37019513     -0.50889511     -7.35620048
  C      4.09192914     -0.19851637     -8.49752241
  C      4.03079614      1.08014891     -9.03536003
  C      3.25051623      2.05050481     -8.42207985
  C      2.52550062      1.74438367     -7.28081126
  H      4.59541626      1.32141256     -9.92817822
  H      3.42941226     -1.50750430     -6.93690012
  H      1.92400681      2.51180112     -6.80605091
  H      3.20619886      3.05286487     -8.83214468
  C      0.26538712      1.15025126     -5.18093406
  C     -0.05412187      1.85249109     -4.01866948
  C     -1.13674990      2.71972144     -3.99201858
  C     -1.90932108      2.90248201     -5.13067238
  C     -1.61273649      2.19555259     -6.28773549
  C     -0.53589690      1.32289508     -6.31316151
  H     -0.30657852      0.78110943     -7.22367433
  H     -2.73812346      3.60002055     -5.11799394
  H     -2.21819890      2.32966221     -7.17653993
  H      0.56712771      1.73847934     -3.13706150
  H      4.70655715     -0.95773496     -8.96715526
  C      1.00963357     -1.59380821     -5.45381287
  C      0.87985637     -2.43518243     -4.34712930
  C      0.37433299     -3.71802634     -4.48325252
  C     -0.02268995     -4.17690856     -5.73153563
  C      0.09488409     -3.34893079     -6.84035592
  C      0.60877835     -2.06720860     -6.70572106
  H     -0.41546117     -5.18091789     -5.84160042
  H     -0.20322562     -3.70687768     -7.81900700
  H      0.71099017     -1.43697738     -7.58174255
  H     -1.36194314      3.27216335     -3.08752710
  H      0.29962467     -4.36245665     -3.61488538
  H      1.19257718     -2.07901013     -3.37125334
  P     -4.01898672      0.43657105     -3.05519902
  C     -5.33134058     -0.28587198     -2.01829209
  C     -6.49918454      0.38568053     -1.65726066
  C     -7.42396900     -0.21793538     -0.81695161
  C     -7.19869304     -1.49724060     -0.33040219
  C     -6.03980167     -2.17708009     -0.68623310
  C     -5.10970606     -1.57195348     -1.51463145
  H     -7.92299373     -1.96574902      0.32548515
  H     -6.68658978      1.38551097     -2.03132168
  H     -4.20107602     -2.10155719     -1.78157285
  H     -5.86123891     -3.18147095     -0.31904703
  C     -4.14130996     -0.53545073     -4.58770362
  C     -2.96651930     -0.86459621     -5.26719039
  C     -3.01660649     -1.60448162     -6.43850835
  C     -4.23816317     -2.03315786     -6.93922150
  C     -5.41052193     -1.72648518     -6.26114080
  C     -5.36585814     -0.98551379     -5.09074483
  H     -6.28337943     -0.76433355     -4.55722742
  H     -4.27593691     -2.61241050     -7.85422990
  H     -6.36518198     -2.06802066     -6.64387092
  H     -2.00971585     -0.53971157     -4.87244444
  H     -8.32551929      0.31716661     -0.54147939
  C     -4.62684888      2.10539131     -3.44666131
  C     -4.18646762      3.15304407     -2.63222162
  C     -4.58944647      4.45709133     -2.87141273
  C     -5.43761981      4.73400347     -3.93615889
  C     -5.87577741      3.70350145     -4.75657124
  C     -5.47294450      2.39787003     -4.51828339
  H     -5.75069188      5.75317221     -4.12929986
  H     -6.53308784      3.91689146     -5.59135657
  H     -5.81315084      1.60385875     -5.17283289
  H     -2.09764125     -1.85020734     -6.95774104
  H     -4.23157699      5.25755134     -2.23393126
  H     -3.51192671      2.93880958     -1.80952089
  P      6.76209502     -0.88785629     -0.09515851
  C      8.42991578     -0.48891601     -0.69348642
  C      9.56974534     -1.18323720     -0.27612487
  C     10.81861550     -0.83225406     -0.76397969
  C     10.94712837      0.21187415     -1.67046668
  C      9.82152127      0.90614694     -2.09271090
  C      8.57046109      0.55624445     -1.60996730
  H     11.92513560      0.48182387     -2.05122420
  H      9.47532919     -2.00292616      0.42727811
  H      7.68908626      1.09333189     -1.94537567
  H      9.91722225      1.71888475     -2.80341248
  C      6.84327545     -2.67457141      0.25101975
  C      7.06379109     -3.52795032     -0.83554780
  C      7.10298416     -4.90129612     -0.65807474
  C      6.90471341     -5.44486286      0.60543198
  C      6.66987752     -4.60781230      1.68680213
  C      6.63796100     -3.23164155      1.51361175
  H      6.46087557     -2.58912439      2.36853539
  H      6.93663833     -6.51887907      0.74589496
  H      6.51912989     -5.02718566      2.67522560
  H      7.21720371     -3.10662853     -1.82363758
  H     11.69565934     -1.37776512     -0.43544008
  C      6.66018723     -0.12782112      1.55728199
  C      7.74017219      0.47617123      2.20225872
  C      7.57739298      1.06100526      3.44978018
  C      6.33732353      1.04889733      4.07276649
  C      5.25463416      0.45294502      3.43827468
  C      5.41402658     -0.12274876      2.18917224
  H      6.21008099      1.50395738      5.04834372
  H      4.28256611      0.43606113      3.91728215
  H      4.56099233     -0.57374732      1.69222516
  H      7.29189822     -5.54931010     -1.50612310
  H      8.42539432      1.52725307      3.93786099
  H      8.71441814      0.48943834      1.72745256
  P      1.37943736     -0.35467105      4.24352937
  C      2.01527525      1.11983712      5.09843069
  C      1.59229505      2.35635257      4.59842414
  C      2.05943723      3.53884273      5.14778558
  C      2.96610905      3.50336911      6.19966310
  C      3.39817325      2.28274826      6.69893266
  C      2.92811549      1.09619102      6.15391632
  H      3.33910003      4.42741874      6.62531121
  H      0.89953036      2.38471936      3.76287692
  H      3.27688160      0.14870867      6.54819402
  H      4.10793740      2.25161910      7.51741722
  C      2.30168460     -1.78778862      4.87712716
  C      3.10979134     -2.49848825      3.98687894
  C      3.79262683     -3.63140708      4.39940283
  C      3.67630645     -4.07180833      5.71051895
  C      2.87069622     -3.37806099      6.60425884
  C      2.18274548     -2.24761137      6.19219143
  H      1.53943621     -1.72539448      6.89161169
  H      4.20765090     -4.95886315      6.03459446
  H      2.77212240     -3.72284835      7.62700991
  H      3.19632076     -2.16021073      2.95983611
  H      1.72352908      4.48864774      4.74724000
  C     -0.25740843     -0.61942306      4.99879361
  C     -1.16129450     -1.43664794      4.31652719
  C     -2.38101791     -1.76327023      4.88498666
  C     -2.72529741     -1.25710257      6.13135659
  C     -1.84843528     -0.41749366      6.80320980
  C     -0.61766858     -0.10431322      6.24563807
  H     -3.67923932     -1.51583569      6.57537100
  H     -2.11822848     -0.01142589      7.77111916
  H      0.06689073      0.54318467      6.78139110
  H      4.41133533     -4.17387900      3.69369002
  H     -3.06042953     -2.41989827      4.35481463
  H     -0.89498549     -1.82862932      3.34028703
  P      0.47382381      3.78220670      0.28807686
  C      0.33352453      4.70677868     -1.27288401
  C     -0.74334021      5.53821821     -1.58368669
  C     -0.82946045      6.13590020     -2.83328387
  C      0.15214859      5.90843442     -3.78761145
  C      1.22499568      5.07713197     -3.49091996
  C      1.31242274      4.47527901     -2.24660853
  H      0.08096070      6.37592691     -4.76253640
  H     -1.51428646      5.72748374     -0.84543085
  H      2.14896940      3.82194102     -2.02023908
  H      1.99270332      4.89196893     -4.23340870
  C      2.13577299      4.23577491      0.88103206
  C      2.89043825      3.30944322      1.60123754
  C      4.15267597      3.63095933      2.07304279
  C      4.68386607      4.88906204      1.82727706
  C      3.94600798      5.82148603      1.10989629
  C      2.68218460      5.50129241      0.64000712
  H      2.11540239      6.23461600      0.07764732
  H      5.67252706      5.14175142      2.19198438
  H      4.35692437      6.80505264      0.91411106
  H      2.48537779      2.32143129      1.79296510
  H     -1.66872718      6.78343030     -3.05989708
  C     -0.66507077      4.60143511      1.44735032
  C     -2.03103608      4.33422203      1.31479693
  C     -2.95099571      4.88642898      2.19049934
  C     -2.51681397      5.70088491      3.22815938
  C     -1.16231079      5.96181370      3.37960684
  C     -0.24113477      5.41973904      2.49532925
  H     -3.23382987      6.12507729      3.92107603
  H     -0.81826963      6.59292549      4.19081508
  H      0.81333117      5.63699442      2.62065435
  H      4.72112510      2.89521196      2.63056495
  H     -4.00710027      4.67298997      2.06878975
  H     -2.36925457      3.68105034      0.51664464
  P     -0.44795818     -3.51235643     -0.04399557
  C     -0.92283755     -4.17615194      1.57933006
  C     -2.25781676     -4.42779561      1.90486811
  C     -2.60232160     -4.85037533      3.18017189
  C     -1.62478086     -5.00645764      4.15408151
  C     -0.29851429     -4.72813769      3.85110691
  C      0.05000514     -4.31171480      2.57609617
  H     -1.89748531     -5.33726863      5.14915672
  H     -3.02982804     -4.29953755      1.15391311
  H      1.08815885     -4.09410810      2.34816449
  H      0.46827340     -4.83396131      4.61008397
  C      1.13179830     -4.35903935     -0.38612725
  C      2.16670586     -3.64207908     -0.98643094
  C      3.38995289     -4.23720956     -1.24777456
  C      3.59400741     -5.56860093     -0.91632906
  C      2.57089373     -6.29811162     -0.32494846
  C      1.34834542     -5.70160107     -0.06070537
  H      0.56008513     -6.27901670      0.40886744
  H      4.55116635     -6.03626499     -1.11443673
  H      2.72699696     -7.33834769     -0.06384007
  H      2.01353542     -2.60008846     -1.24166065
  H     -3.63979753     -5.06009742      3.41377115
  C     -1.60692782     -4.25672390     -1.23671525
  C     -2.01500062     -3.48125816     -2.32463378
  C     -2.86589685     -3.99934840     -3.28904966
  C     -3.33006021     -5.30219832     -3.17349040
  C     -2.93376430     -6.08322868     -2.09597663
  C     -2.07475076     -5.56981334     -1.13651005
  H     -3.99810640     -5.70870237     -3.92362576
  H     -3.29261486     -7.10165426     -2.00351931
  H     -1.76696248     -6.19323505     -0.30480094
  H      4.18470339     -3.65758974     -1.70459617
  H     -3.15966372     -3.38502462     -4.13236324
  H     -1.65275960     -2.46233594     -2.41917739
  P     -4.21061696      0.86312610      2.56286497
  C     -3.72568617      1.96642741      3.92476762
  C     -4.63922667      2.74916261      4.63654798
  C     -4.20376845      3.57746222      5.65945549
  C     -2.85456464      3.64145902      5.98192044
  C     -1.93742441      2.87962937      5.27120298
  C     -2.36975695      2.05217023      4.24753672
  H     -2.51711160      4.29084864      6.78102874
  H     -5.69251814      2.71993678      4.38176158
  H     -1.65069574      1.46407310      3.68617830
  H     -0.88176838      2.93322759      5.51194587
  C     -5.00120176     -0.58460988      3.32758705
  C     -5.05350835     -1.75778966      2.57042208
  C     -5.68776838     -2.88753059      3.06261959
  C     -6.26710433     -2.86365783      4.32460508
  C     -6.20944408     -1.70725061      5.09055587
  C     -5.58214328     -0.57234794      4.59764575
  H     -5.53648045      0.32347481      5.20609206
  H     -6.76103269     -3.74699465      4.71162577
  H     -6.65836960     -1.68555491      6.07671776
  H     -4.59402590     -1.77843242      1.58734410
  H     -4.92171458      4.17838453      6.20526847
  C     -5.61942858      1.72492793      1.79461907
  C     -5.36568005      2.57356934      0.71547898
  C     -6.39086973      3.28977929      0.11850800
  C     -7.69194748      3.15729858      0.58459728
  C     -7.96094697      2.30125496      1.64403507
  C     -6.93445578      1.58972070      2.24700652
  H     -8.49522565      3.71513064      0.11822591
  H     -8.97587281      2.18727954      2.00649400
  H     -7.15972890      0.92012072      3.06901123
  H     -5.73118308     -3.78714120      2.45941373
  H     -6.17329006      3.94847982     -0.71439235
  H     -4.35327989      2.66158358      0.33744111

