#B3LYP/6-31+G(d) OPT FREQ

246, Energy =   -372.44082733 au

0 1
 Au     -3.27205524      1.00436020      0.13536903
 Au      1.23379917     -0.66959479      0.70076610
 Au     -2.05710967      0.15100698     -2.38801407
 Au      1.15148583      0.71236153      3.07404220
 Au     -1.58067011     -1.44155318     -0.32264464
 Au     -2.45921695      3.11701934      1.37336313
 Au     -0.85579025      0.88671013      1.42249525
 Au     -1.47480002     -2.43127068     -2.77014748
  P     -1.61381456      5.07871303      2.35962236
  C     -2.68158779      6.54456458      2.29204253
  C     -3.25679121      7.12242838      3.42478643
  C     -4.11839616      8.20196139      3.29668009
  C     -4.41979200      8.71185964      2.04189845
  C     -3.85862053      8.13832112      0.90756114
  C     -3.00071472      7.05816882      1.02980094
  H     -5.09362960      9.55495042      1.94562753
  H     -3.02678369      6.73036158      4.40877963
  H     -2.56625020      6.60632000      0.14359331
  H     -4.09186315      8.53267987     -0.07485155
  C     -0.03621911      5.62932367      1.63931480
  C      0.87163701      4.65767852      1.21201378
  C      2.10484923      5.02115877      0.69552424
  C      2.44543852      6.36303849      0.58639246
  C      1.54652222      7.33799137      0.99628714
  C      0.31528988      6.97625629      1.52211638
  H     -0.37846203      7.74546822      1.84076745
  H      3.40812810      6.64609786      0.17732664
  H      1.80480237      8.38694002      0.90977245
  H      0.60371296      3.60832506      1.28020408
  H     -4.55583790      8.64571324      4.18343633
  C     -1.22151037      4.84903211      4.11966574
  C     -1.93468630      3.88911730      4.84114345
  C     -1.68863110      3.69461054      6.19113060
  C     -0.71372044      4.44704143      6.83443422
  C      0.01502755      5.39011589      6.12193205
  C     -0.23820393      5.59466782      4.77495222
  H     -0.52288135      4.29892472      7.89083776
  H      0.78328036      5.97209288      6.61798042
  H      0.33126687      6.33743185      4.22776524
  H      2.80022045      4.25569365      0.37197151
  H     -2.25936869      2.95612070      6.74228609
  H     -2.69031987      3.29563537      4.33719890
  P      2.61775649      1.13180792      4.88766564
  C      4.19692232      0.24974118      4.70445274
  C      5.44779647      0.85988770      4.79821808
  C      6.60605230      0.11298680      4.63829222
  C      6.53055949     -1.25104404      4.39441513
  C      5.28992973     -1.86781350      4.29344849
  C      4.13142012     -1.12167705      4.43346049
  H      7.43658791     -1.83382799      4.27767445
  H      5.51965052      1.92174121      5.00362908
  H      3.16239503     -1.60150697      4.33574367
  H      5.22647514     -2.93218172      4.09763444
  C      2.05289654      0.67317960      6.55723522
  C      0.91653402      1.32614297      7.04605267
  C      0.40031334      1.00822058      8.29152332
  C      1.00574909      0.02533534      9.06420723
  C      2.13024767     -0.63255592      8.58660095
  C      2.65242813     -0.31406711      7.34062863
  H      3.53300269     -0.83360895      6.98143529
  H      0.60089537     -0.22656323     10.03717007
  H      2.60819555     -1.39846171      9.18627996
  H      0.44417645      2.09540919      6.44389428
  H      7.57173253      0.59949012      4.71200492
  C      3.05404363      2.88446937      5.09392451
  C      2.76983842      3.78134835      4.06324582
  C      3.10209520      5.12238825      4.17916116
  C      3.70885137      5.58876778      5.33705741
  C      3.98078767      4.70972231      6.37761869
  C      3.65904530      3.36700357      6.25911190
  H      3.96651765      6.63719050      5.43024354
  H      4.44833047      5.07162081      7.28588740
  H      3.87102795      2.68730409      7.07676192
  H     -0.47798391      1.52657497      8.65895284
  H      2.88596245      5.80331839      3.36380260
  H      2.27621808      3.42331518      3.16662757
  P      2.50773933      0.94266745     -1.08696835
  C      4.00138813      1.71542287     -0.35240909
  C      5.15919685      2.01741251     -1.07360383
  C      6.24931913      2.60175039     -0.44611760
  C      6.20357275      2.89907828      0.90873649
  C      5.05728985      2.61053388      1.63667532
  C      3.96977200      2.02334199      1.01008757
  H      7.05777912      3.35296774      1.39696293
  H      5.21654907      1.78861606     -2.13130628
  H      3.08058189      1.79128883      1.58756719
  H      5.00910747      2.84043756      2.69482245
  C      1.63947978      2.45097926     -1.68547459
  C      0.29007047      2.61158896     -1.37715291
  C     -0.39521990      3.76652261     -1.72089092
  C      0.26050946      4.78167539     -2.40106967
  C      1.59965677      4.62811010     -2.73760370
  C      2.28641590      3.47785874     -2.37973061
  H      3.33549233      3.38023014     -2.63506737
  H     -0.26824227      5.68918323     -2.66795791
  H      2.11652071      5.41572317     -3.27357068
  H     -0.22826452      1.82318981     -0.84644428
  H      7.14032378      2.82508224     -1.02142449
  C      3.17680330      0.23451498     -2.63633954
  C      4.26678133     -0.64174340     -2.57067176
  C      4.73632959     -1.27427057     -3.71013089
  C      4.11703580     -1.05738640     -4.93425631
  C      3.02428363     -0.20434401     -5.01095364
  C      2.55583163      0.43283506     -3.87142163
  H      4.48192350     -1.55526955     -5.82482686
  H      2.53264994     -0.03231509     -5.96200203
  H      1.70081105      1.09436395     -3.94241471
  H     -1.44004400      3.87063791     -1.44940762
  H      5.58589231     -1.94385817     -3.64101686
  H      4.74916538     -0.82584387     -1.61698323
  P      2.33899367     -2.80747934      0.34090346
  C      4.13705363     -2.59677021      0.57003935
  C      5.07129426     -3.59765552      0.28674792
  C      6.42733376     -3.35749623      0.43932373
  C      6.87667686     -2.11598555      0.87093845
  C      5.96015483     -1.11788880      1.16800303
  C      4.60322945     -1.36248868      1.02481241
  H      7.93856486     -1.92951109      0.97934437
  H      4.73926947     -4.57087978     -0.05444759
  H      3.88962310     -0.58636714      1.27347396
  H      6.29805252     -0.14813954      1.51564567
  C      2.20947308     -3.46657007     -1.35722223
  C      1.74015946     -2.61811370     -2.36042919
  C      1.70222963     -3.03049717     -3.68423783
  C      2.12656028     -4.30701194     -4.02504739
  C      2.56174627     -5.17465736     -3.03275170
  C      2.59977067     -4.76201604     -1.70924764
  H      2.93025147     -5.45682297     -0.94616020
  H      2.10889840     -4.62771881     -5.05997183
  H      2.87525199     -6.17978687     -3.28959172
  H      1.42347123     -1.61556058     -2.10168894
  H      7.13858344     -4.14432030      0.21651927
  C      1.95257396     -4.27539675      1.34910736
  C      2.66049243     -4.56191060      2.51818311
  C      2.31952002     -5.65598520      3.29908728
  C      1.26341549     -6.47735093      2.92764715
  C      0.53989984     -6.19244107      1.77639072
  C      0.87511679     -5.09494701      0.99839261
  H      1.00269979     -7.33631653      3.53440936
  H     -0.28869301     -6.82653832      1.48165446
  H      0.29953084     -4.87358439      0.10582858
  H      1.35797789     -2.34460228     -4.44895606
  H      2.88641549     -5.87179502      4.19732218
  H      3.49196980     -3.93084867      2.81122715
  P     -2.41005782     -2.53464320      1.67988261
  C     -1.52344656     -2.36347646      3.25668356
  C     -1.58848830     -1.16817375      3.98039646
  C     -0.81103397     -0.98694846      5.11480499
  C      0.05618361     -1.98824571      5.53461557
  C      0.14391704     -3.16986956      4.81337150
  C     -0.63746126     -3.35525249      3.68395778
  H      0.66045359     -1.84820871      6.42268080
  H     -2.26249159     -0.38068960      3.66291829
  H     -0.56647651     -4.28398146      3.13069367
  H      0.82221779     -3.95395032      5.13007604
  C     -2.72190962     -4.32250896      1.51760039
  C     -2.54919197     -4.92915393      0.27292600
  C     -2.78817028     -6.28444804      0.10576928
  C     -3.20354267     -7.05239828      1.18493287
  C     -3.38895600     -6.45781890      2.42679294
  C     -3.15436054     -5.10261278      2.59454855
  H     -3.30610980     -4.64554465      3.56598659
  H     -3.38710309     -8.11273133      1.05787421
  H     -3.71975454     -7.05350747      3.26955803
  H     -2.22345966     -4.33160727     -0.57242563
  H     -0.89099561     -0.06516883      5.67911438
  C     -4.07386335     -1.86483130      2.00634423
  C     -4.82549957     -1.43541365      0.90576045
  C     -6.08742733     -0.88553240      1.07682504
  C     -6.62046566     -0.75998279      2.35278397
  C     -5.89533902     -1.20467798      3.44907946
  C     -4.63339016     -1.75673131      3.28017811
  H     -7.60293444     -0.32426342      2.49044920
  H     -6.31280612     -1.12232104      4.44591617
  H     -4.08299906     -2.10359512      4.14704301
  H     -2.64587184     -6.73975026     -0.86764250
  H     -6.65345412     -0.56081123      0.21159857
  H     -4.43190181     -1.57205271     -0.09470005
  P     -3.10214120      1.81298834     -3.73023029
  C     -2.06645562      2.74181353     -4.89924831
  C     -2.61209990      3.60073180     -5.85867877
  C     -1.78315886      4.28665965     -6.73155997
  C     -0.40519193      4.12242669     -6.66338617
  C      0.14472283      3.26387556     -5.72195143
  C     -0.68272112      2.57618926     -4.84800737
  H      0.23906354      4.66141805     -7.34803202
  H     -3.68739101      3.72629753     -5.92169134
  H     -0.25935760      1.90390480     -4.10970920
  H      1.21898192      3.12949852     -5.66529604
  C     -3.98902906      3.07228097     -2.76325192
  C     -4.98265801      2.63945890     -1.87670716
  C     -5.61234279      3.53587161     -1.02676742
  C     -5.25733941      4.87903706     -1.04655505
  C     -4.28226883      5.32076365     -1.92932725
  C     -3.64704664      4.42497817     -2.77811587
  H     -2.88758143      4.78434537     -3.46287572
  H     -5.74402847      5.58036619     -0.37903449
  H     -4.01274074      6.37008138     -1.96224096
  H     -5.27920386      1.59602666     -1.87381260
  H     -2.21440520      4.95199751     -7.47042795
  C     -4.37306376      1.07826197     -4.80421296
  C     -4.05227112     -0.11744424     -5.45342830
  C     -4.95499235     -0.71749181     -6.31487496
  C     -6.19965068     -0.13924742     -6.52793529
  C     -6.53244282      1.04281661     -5.88154750
  C     -5.62555281      1.65319703     -5.02775487
  H     -6.90940275     -0.61154730     -7.19688258
  H     -7.50291660      1.49697328     -6.04451382
  H     -5.89403731      2.57855029     -4.53137445
  H     -6.38201267      3.18460441     -0.34962872
  H     -4.68881614     -1.64009396     -6.81794472
  H     -3.08380465     -0.57664697     -5.28011487
  P     -1.69879621     -4.04204926     -4.47634288
  C     -0.70034525     -3.72589925     -5.96329382
  C     -0.05251079     -4.71871754     -6.70048889
  C      0.72258769     -4.38064280     -7.80085256
  C      0.86521772     -3.05220024     -8.17591948
  C      0.22862448     -2.05545060     -7.44738684
  C     -0.54396175     -2.38994264     -6.34750674
  H      1.47463487     -2.79230950     -9.03337169
  H     -0.15202588     -5.75935475     -6.41418316
  H     -1.03344826     -1.60939224     -5.77315754
  H      0.33834812     -1.01543233     -7.73295035
  C     -3.40918825     -4.09743131     -5.08859342
  C     -4.43426281     -3.85627389     -4.16991800
  C     -5.76077104     -3.89241915     -4.56690513
  C     -6.08093623     -4.16574785     -5.89047070
  C     -5.07027813     -4.39862242     -6.81385416
  C     -3.74075451     -4.36425775     -6.41879960
  H     -2.95734796     -4.53982772     -7.14721862
  H     -7.11812603     -4.19239204     -6.20307371
  H     -5.31692815     -4.60918669     -7.84795372
  H     -4.18306846     -3.63672279     -3.13690105
  H      1.21892608     -5.16111239     -8.36577378
  C     -1.35390193     -5.75833055     -3.98601928
  C     -0.61942655     -5.97475696     -2.81871323
  C     -0.32599216     -7.26160507     -2.39439760
  C     -0.76936612     -8.35115518     -3.13192967
  C     -1.51260574     -8.14861738     -4.28744686
  C     -1.80812542     -6.86266809     -4.71257906
  H     -0.54128654     -9.35808250     -2.80280205
  H     -1.86699805     -8.99763493     -4.86025506
  H     -2.40297983     -6.71422747     -5.60682053
  H     -6.54570183     -3.70340033     -3.84372362
  H      0.24900095     -7.41149844     -1.48746579
  H     -0.27689994     -5.12330567     -2.24039680

