#B3LYP/6-31+G(d) OPT FREQ

246, Energy =   -372.44483736 au

0 1
 Au     -1.92634059     -2.83505064      1.48538036
 Au     -2.21492470     -0.19061766     -2.58302601
 Au     -2.86887781      1.82688257     -0.88421152
 Au     -0.22011643      0.77317699     -0.70255727
 Au     -2.07940538     -0.53971955      2.66078089
 Au     -2.61515288     -0.68867548     -0.01176108
 Au      2.45155368      0.22005807     -0.55091341
 Au      0.75281792      0.02322018      1.62580692
  P     -2.67035965      1.39102709      3.96526213
  C     -2.62908163      1.18388919      5.76961586
  C     -1.56583444      1.64116338      6.55205330
  C     -1.51087631      1.35025559      7.90719937
  C     -2.50884469      0.58904028      8.49910275
  C     -3.56383096      0.11615031      7.72892891
  C     -3.62118079      0.40395824      6.37459560
  H     -2.46430387      0.36197784      9.55761345
  H     -0.77863088      2.23260724      6.10011284
  H     -4.44445631      0.02559687      5.77820708
  H     -4.34560999     -0.48014933      8.18483974
  C     -4.39576977      1.88583266      3.64181979
  C     -4.99639420      1.49620659      2.44375436
  C     -6.29367731      1.88016733      2.13960884
  C     -7.01235741      2.65988723      3.03538934
  C     -6.42783527      3.05290827      4.23248740
  C     -5.12952779      2.67198123      4.53506797
  H     -4.68526927      2.98162655      5.47420228
  H     -8.02779276      2.95802654      2.80292386
  H     -6.98687772      3.65738240      4.93719868
  H     -4.44095685      0.88082985      1.74432255
  H     -0.68075750      1.71882416      8.49913426
  C     -1.77710568      2.94679369      3.62293823
  C     -1.04138954      3.03798627      2.44089974
  C     -0.35165300      4.19397833      2.11258153
  C     -0.38965817      5.28455110      2.96990511
  C     -1.12868519      5.21450648      4.14365378
  C     -1.82430056      4.05937216      4.46677637
  H      0.14886900      6.19098107      2.72022032
  H     -1.16879718      6.06817902      4.81013266
  H     -2.40732730      4.02441860      5.37973609
  H     -6.74360073      1.56457722      1.20540588
  H      0.21789844      4.24049906      1.19090626
  H     -1.01135935      2.18832907      1.76865171
  P     -1.68232264     -0.06194700     -4.88954529
  C     -1.92238980      1.65937044     -5.43469064
  C     -0.87120627      2.56579463     -5.58020655
  C     -1.12546309      3.89252179     -5.89287041
  C     -2.43010483      4.33585990     -6.05614980
  C     -3.48440081      3.44431807     -5.90834028
  C     -3.23447749      2.11853859     -5.59356798
  H     -2.62577755      5.37386586     -6.29791860
  H      0.15423467      2.23633256     -5.45660829
  H     -4.06211837      1.42685107     -5.47672385
  H     -4.50604213      3.78369276     -6.03449598
  C     -2.69091403     -1.03690950     -6.03928348
  C     -3.39255153     -2.14077675     -5.54950568
  C     -4.15983927     -2.92051321     -6.40061196
  C     -4.24016660     -2.60447839     -7.74975033
  C     -3.55494456     -1.50303867     -8.24576579
  C     -2.78488243     -0.72166262     -7.39916114
  H     -2.25957668      0.14285294     -7.78936477
  H     -4.84178113     -3.21322736     -8.41435314
  H     -3.62132687     -1.24996601     -9.29745629
  H     -3.33938578     -2.38246275     -4.49270111
  H     -0.29758571      4.58319501     -6.00608910
  C      0.04768015     -0.42058015     -5.31922767
  C      1.04173508      0.08931469     -4.47943840
  C      2.38010566     -0.11062637     -4.77124975
  C      2.74933821     -0.85043189     -5.88643989
  C      1.77002771     -1.38640277     -6.71069027
  C      0.42809696     -1.16960264     -6.43373063
  H      3.79838281     -1.01061362     -6.10660238
  H      2.05012263     -1.97207328     -7.57845675
  H     -0.32713470     -1.58615052     -7.08993797
  H     -4.69995799     -3.77473526     -6.00874805
  H      3.13799832      0.31387577     -4.12513791
  H      0.76049697      0.64429733     -3.58955788
  P      3.02941160     -2.02037356     -1.48216452
  C      4.47958226     -2.15759996     -2.57956332
  C      4.98478510     -3.39000181     -3.01060045
  C      6.08322659     -3.44150796     -3.85436781
  C      6.69835416     -2.26989167     -4.27631793
  C      6.21792122     -1.04245855     -3.84244143
  C      5.11877031     -0.98908400     -2.99885047
  H      7.55653916     -2.31521873     -4.93629878
  H      4.52232684     -4.31108637     -2.67343869
  H      4.75552093     -0.02763534     -2.65153585
  H      6.70029927     -0.12385753     -4.15612485
  C      1.65874238     -2.76179936     -2.44690372
  C      0.36385868     -2.65995889     -1.93075835
  C     -0.72587182     -3.15199498     -2.63281600
  C     -0.54661668     -3.74415876     -3.87617874
  C      0.73045836     -3.83324850     -4.40965177
  C      1.82121915     -3.34477803     -3.70511827
  H      2.80635567     -3.41207097     -4.15066690
  H     -1.39872251     -4.12821647     -4.42458677
  H      0.88213842     -4.28130119     -5.38477798
  H      0.19983559     -2.18594210     -0.96998974
  H      6.46227732     -4.40249679     -4.18215483
  C      3.38641472     -3.26787062     -0.19395040
  C      4.70888843     -3.53993619      0.17015441
  C      4.99484741     -4.41144104      1.20919642
  C      3.96568632     -5.01921205      1.91328979
  C      2.64870079     -4.74385540      1.57353718
  C      2.35954138     -3.87006317      0.53690758
  H      4.18697848     -5.70207114      2.72489209
  H      1.84105429     -5.22679985      2.11109845
  H      1.32354109     -3.67005387      0.28760564
  H     -1.71708068     -3.07936746     -2.20180238
  H      6.02732613     -4.61454338      1.46876173
  H      5.52584012     -3.07411660     -0.36852964
  P      4.23442545      1.90766291     -0.35001085
  C      3.84856578      3.29013183      0.77375244
  C      4.02909928      3.10895095      2.14907836
  C      3.67455648      4.10495063      3.04391305
  C      3.10902315      5.28707233      2.58351054
  C      2.90060193      5.46729542      1.22282869
  C      3.26758473      4.47680832      0.32380396
  H      2.83428420      6.06657997      3.28443076
  H      4.46336617      2.18512616      2.51714692
  H      3.11303834      4.63251048     -0.73787423
  H      2.46005083      6.38767164      0.85661919
  C      4.45039880      2.70485495     -1.97603253
  C      3.35739633      2.68998116     -2.84765319
  C      3.44761570      3.24795168     -4.11349900
  C      4.63961667      3.82473155     -4.53074078
  C      5.73431012      3.84056514     -3.67715008
  C      5.64364316      3.28534814     -2.40962905
  H      6.50848937      3.29905301     -1.75638983
  H      4.71634595      4.25583298     -5.52192929
  H      6.66783641      4.28600130     -4.00083920
  H      2.43019047      2.22796422     -2.52513452
  H      3.84327885      3.95836826      4.10449643
  C      5.92308841      1.43376014      0.14938376
  C      6.30607970      0.09859267      0.00784773
  C      7.59005115     -0.31088633      0.33486097
  C      8.50730099      0.61043602      0.82218525
  C      8.13382406      1.93790314      0.98368048
  C      6.85295989      2.35039109      0.65010603
  H      9.51081398      0.29319708      1.07999165
  H      8.84486674      2.65891734      1.36992462
  H      6.57043628      3.38803033      0.78648009
  H      2.58918634      3.22376119     -4.77565332
  H      7.87315951     -1.34948042      0.20682735
  H      5.58832464     -0.62575518     -0.36183125
  P      1.46260730     -0.73422946      3.75359090
  C      3.08704753     -1.55299854      3.80438890
  C      3.38741091     -2.58631858      4.69498185
  C      4.66864508     -3.11374620      4.74809359
  C      5.66566133     -2.61347662      3.92195280
  C      5.37398977     -1.59314935      3.02651738
  C      4.09274720     -1.07094194      2.96353672
  H      6.66863054     -3.02052935      3.97230099
  H      2.61705582     -2.97996115      5.34799022
  H      3.86712789     -0.27796598      2.25689381
  H      6.14655211     -1.20363941      2.37370300
  C      0.31565741     -1.94046597      4.47910314
  C     -0.56196977     -1.62696810      5.51775735
  C     -1.50430613     -2.55114734      5.94719209
  C     -1.58449629     -3.79968444      5.34790660
  C     -0.72211290     -4.12142328      4.30659567
  C      0.21052968     -3.19480290      3.86652442
  H      0.88012994     -3.44513603      3.05238932
  H     -2.31658070     -4.52233448      5.68840990
  H     -0.77290052     -5.09690298      3.83707103
  H     -0.50251962     -0.65785019      5.99845339
  H      4.88965927     -3.91498371      5.44358936
  C      1.65150235      0.58328569      4.99021713
  C      1.46233781      1.90725631      4.59321583
  C      1.61189944      2.94557142      5.50136216
  C      1.96839219      2.67123840      6.81500903
  C      2.17240282      1.35700866      7.21740405
  C      2.01637333      0.31817690      6.31399006
  H      2.08955757      3.48102851      7.52466732
  H      2.45632933      1.14063230      8.24065408
  H      2.18224702     -0.70456325      6.63375590
  H     -2.17758645     -2.28964078      6.75558262
  H      1.44619021      3.96801292      5.18163815
  H      1.19271572      2.12214407      3.56488047
  P     -2.06496219     -5.11127894      0.69986891
  C     -0.59448164     -6.15763973      0.44867680
  C     -0.13424088     -7.01786362      1.44938472
  C      1.02045805     -7.76377633      1.26211677
  C      1.74198075     -7.65192846      0.08115829
  C      1.30654961     -6.78520404     -0.91226082
  C      0.15165899     -6.04144710     -0.72887029
  H      2.64269330     -8.23671016     -0.06320050
  H     -0.69006816     -7.11623143      2.37516615
  H     -0.18229063     -5.36996969     -1.51135912
  H      1.86738234     -6.68583025     -1.83478781
  C     -2.95955912     -5.23401781     -0.88696157
  C     -3.82421955     -4.19285121     -1.23458439
  C     -4.54844063     -4.23152519     -2.41571681
  C     -4.41795649     -5.31690712     -3.27161658
  C     -3.56569450     -6.36034057     -2.93751871
  C     -2.84449643     -6.32366739     -1.75388524
  H     -2.18620999     -7.14817271     -1.50598621
  H     -4.98433784     -5.35254206     -4.19497157
  H     -3.46365169     -7.21159801     -3.60059098
  H     -3.93183223     -3.34406931     -0.56763817
  H      1.35616728     -8.43651694      2.04276779
  C     -3.12034454     -6.09264957      1.81077704
  C     -3.73238005     -5.45463731      2.89095056
  C     -4.56157994     -6.15647589      3.75191718
  C     -4.79217665     -7.50866823      3.54185927
  C     -4.19450029     -8.15423069      2.46679523
  C     -3.36633672     -7.45405704      1.60478727
  H     -5.43921857     -8.05983430      4.21401813
  H     -4.37574459     -9.20939747      2.29816000
  H     -2.90675702     -7.96554344      0.76632203
  H     -5.21671717     -3.41518837     -2.66509453
  H     -5.02805788     -5.64588234      4.58658766
  H     -3.55295115     -4.39690550      3.05465241
  P     -3.16025535      4.16475950     -1.13382211
  C     -4.65773237      4.54752154     -2.08725980
  C     -5.32416570      5.77323376     -1.99637745
  C     -6.45522662      6.01249737     -2.76150351
  C     -6.93890727      5.03497176     -3.62060726
  C     -6.29042316      3.81023920     -3.71142772
  C     -5.15886220      3.56895844     -2.94901423
  H     -7.82514590      5.22443906     -4.21457462
  H     -4.96017870      6.53759474     -1.31914982
  H     -4.65307142      2.61107868     -3.01875225
  H     -6.67028933      3.03900997     -4.37163088
  C     -1.80470323      4.90953723     -2.09498407
  C     -0.51178189      4.41137897     -1.92041681
  C      0.55753576      4.96697764     -2.60285613
  C      0.35163864      6.02508414     -3.47772853
  C     -0.93048572      6.52230228     -3.66816069
  C     -2.00207958      5.96933023     -2.98371508
  H     -2.99953023      6.36291339     -3.14231646
  H      1.18929179      6.45926447     -4.01072779
  H     -1.09841349      7.34628146     -4.35181838
  H     -0.34418865      3.58062317     -1.24158055
  H     -6.96283587      6.96697006     -2.68357827
  C     -3.29729302      5.23487598      0.33180862
  C     -4.14431549      4.81479465      1.36095233
  C     -4.31772464      5.59403910      2.49264720
  C     -3.64245182      6.80137800      2.61501633
  C     -2.78966854      7.22196575      1.60397583
  C     -2.61380035      6.44460515      0.46888870
  H     -3.77888066      7.41211258      3.49966107
  H     -2.25828937      8.16207252      1.69652889
  H     -1.94524278      6.78240781     -0.31439884
  H      1.55603732      4.57359526     -2.45297323
  H     -4.97995978      5.25682913      3.28183332
  H     -4.67105592      3.87119829      1.26588422

