#B3LYP/6-31+G(d) OPT FREQ

246, Energy =   -372.44763788 au

0 1
 Au      0.44590972      3.22660337      0.60627080
 Au     -0.74228240     -0.25260551     -2.97580560
 Au     -1.89933495      2.22705934      1.24013419
 Au     -0.35685758      0.73115743     -0.60182322
 Au      1.73475313     -1.47752906      1.22688983
 Au     -0.61539510     -1.87828582     -0.79461061
 Au      0.41017903     -1.27469757      3.47042906
 Au      0.62416532      0.94172190      1.98164152
  P     -0.85288619     -0.32579457     -5.33625202
  C      0.79496618     -0.06447645     -6.07352326
  C      1.27103825     -0.75254882     -7.19094584
  C      2.54576795     -0.50645353     -7.67951006
  C      3.36206515      0.43340832     -7.06620359
  C      2.90432625      1.11582043     -5.94734206
  C      1.63785496      0.85894725     -5.44709095
  H      4.35505797      0.62848796     -7.45349619
  H      0.64928439     -1.49144349     -7.68202962
  H      1.29811385      1.37150628     -4.55315237
  H      3.53921774      1.84489847     -5.45678737
  C     -1.86972710      1.00795553     -6.04885182
  C     -3.13628421      0.77651595     -6.59116352
  C     -3.92883120      1.83657828     -7.00717301
  C     -3.47814774      3.14204404     -6.87546684
  C     -2.22668495      3.38514957     -6.32464933
  C     -1.43115172      2.32936343     -5.91136285
  H     -0.45821388      2.53548936     -5.47842037
  H     -4.10056492      3.96833647     -7.19781012
  H     -1.86767923      4.40200771     -6.21100832
  H     -3.50742888     -0.23651552     -6.69483134
  H      2.90015918     -1.05070359     -8.54716180
  C     -1.47182849     -1.87529932     -6.04776824
  C     -1.63625973     -2.96289492     -5.18670068
  C     -2.07377982     -4.18753675     -5.66479037
  C     -2.35967826     -4.34211853     -7.01419001
  C     -2.21101083     -3.26675186     -7.88014163
  C     -1.77091133     -2.04091662     -7.40490042
  H     -2.70155100     -5.29903385     -7.39058811
  H     -2.43870673     -3.38255645     -8.93335426
  H     -1.66532473     -1.20708214     -8.08940494
  H     -4.90557435      1.63827163     -7.43300546
  H     -2.19252718     -5.02131315     -4.98210447
  H     -1.42020272     -2.84086156     -4.12990048
  P     -1.12873222     -4.15482657     -0.38825749
  C     -0.06918134     -5.33201973     -1.27801899
  C      0.19222515     -6.62066310     -0.80609690
  C      0.98810110     -7.48533558     -1.54142209
  C      1.53988009     -7.07583929     -2.74847990
  C      1.29114198     -5.79504875     -3.22346235
  C      0.48989827     -4.93195098     -2.49374168
  H      2.16379032     -7.75444916     -3.31797084
  H     -0.23045351     -6.94748810      0.13704302
  H      0.29134002     -3.93361882     -2.86671282
  H      1.72098952     -5.46557099     -4.16259205
  C     -2.80724888     -4.52946669     -0.97431974
  C     -3.88342766     -3.91223947     -0.32800767
  C     -5.18251795     -4.12729694     -0.75945806
  C     -5.42394364     -4.94050254     -1.85995121
  C     -4.36161526     -5.54245099     -2.51935730
  C     -3.06128074     -5.34242106     -2.07975662
  H     -2.24010707     -5.82747520     -2.59473266
  H     -6.43928027     -5.10496028     -2.20065909
  H     -4.54447906     -6.17781727     -3.37819816
  H     -3.69535409     -3.26602517      0.52261500
  H      1.17765386     -8.48543656     -1.16941249
  C     -1.10387025     -4.75184700      1.33354797
  C      0.02528005     -4.45233960      2.09971790
  C      0.10979709     -4.83506947      3.42826493
  C     -0.93776812     -5.53462577      4.01306330
  C     -2.06125596     -5.84793519      3.26168242
  C     -2.14737939     -5.46147184      1.93143297
  H     -0.87587958     -5.83666325      5.05181278
  H     -2.87833559     -6.39961709      3.71201015
  H     -3.03075617     -5.71603508      1.35808642
  H     -6.00815997     -3.65984882     -0.23495839
  H      0.99522871     -4.59309480      4.00447748
  H      0.85239253     -3.92549397      1.63819209
  P     -0.30845853      5.18920546     -0.72642140
  C     -2.11121024      5.46017116     -0.67635731
  C     -2.68973969      6.00760251      0.47288060
  C     -4.06694369      6.08576791      0.60211230
  C     -4.89035664      5.61650854     -0.41276164
  C     -4.32907286      5.06596405     -1.55650803
  C     -2.95009900      4.97759236     -1.68530081
  H     -5.96750485      5.67766562     -0.31108714
  H     -2.05391744      6.37732041      1.27010268
  H     -2.52382775      4.53841358     -2.58069462
  H     -4.96591673      4.69935492     -2.35356485
  C      0.10894962      5.23518549     -2.49977972
  C      1.11303978      4.37858093     -2.95683830
  C      1.50408782      4.38978649     -4.28654184
  C      0.88490828      5.24776440     -5.18545477
  C     -0.12543263      6.09400331     -4.74722100
  C     -0.51069882      6.09231784     -3.41505428
  H     -1.30134688      6.75698253     -3.08650131
  H      1.18977213      5.25780545     -6.22523989
  H     -0.61103671      6.76685463     -5.44443520
  H      1.59011919      3.69636055     -2.26109112
  H     -4.49920755      6.51565422      1.49831660
  C      0.37863029      6.72820723     -0.03265860
  C      0.71001483      6.72393678      1.32561127
  C      1.24089060      7.85221851      1.92938275
  C      1.45775907      9.00075843      1.18034803
  C      1.14342199      9.01367293     -0.17193274
  C      0.60750486      7.88722725     -0.77690018
  H      1.87821841      9.88288618      1.64847524
  H      1.31738263      9.90615095     -0.76172218
  H      0.37350576      7.91019989     -1.83475009
  H      2.29908186      3.73312663     -4.62001068
  H      1.49346525      7.83163065      2.98316349
  H      0.55842922      5.82020152      1.90775325
  P     -4.07027385      1.23892974      1.13363279
  C     -5.62156754      2.13586707      1.42973794
  C     -6.43151643      2.59427100      0.38876641
  C     -7.56061754      3.35154509      0.66297694
  C     -7.89006948      3.66620492      1.97410374
  C     -7.08629382      3.22149473      3.01602640
  C     -5.95640742      2.46672964      2.74751609
  H     -8.77236576      4.25886159      2.18465976
  H     -6.18069288      2.35453868     -0.63827363
  H     -5.32778435      2.12377780      3.56286787
  H     -7.33870300      3.46608067      4.04129948
  C     -4.22948487     -0.32694770      2.04635167
  C     -3.05993544     -1.05078356      2.28586347
  C     -3.10615246     -2.28933812      2.90225283
  C     -4.32764382     -2.82571783      3.29156020
  C     -5.49545684     -2.10653554      3.07790440
  C     -5.44974443     -0.86505318      2.46073573
  H     -6.36733995     -0.31281312      2.29422981
  H     -4.36556091     -3.80320939      3.75796269
  H     -6.44949044     -2.51691762      3.38755206
  H     -2.10472922     -0.63996212      1.97874908
  H     -8.18622677      3.69471671     -0.15286052
  C     -4.17377007      0.68246211     -0.59925624
  C     -3.67238771      1.53367980     -1.58664380
  C     -3.65126032      1.14644889     -2.91747114
  C     -4.11750008     -0.11238094     -3.27914841
  C     -4.61840472     -0.96756560     -2.30773629
  C     -4.65334632     -0.57141548     -0.97922728
  H     -4.09611315     -0.42101673     -4.31749938
  H     -4.98527127     -1.94961099     -2.58384892
  H     -5.05349460     -1.24521929     -0.23125051
  H     -2.18674203     -2.83459390      3.07830435
  H     -3.27294181      1.82692492     -3.67107042
  H     -3.29351512      2.50875405     -1.30363216
  P      2.93026796      3.40002430      0.61679930
  C      3.71228030      5.03958417      0.73970519
  C      4.31207497      5.51414968      1.90729547
  C      4.81374575      6.80625712      1.96102064
  C      4.72006311      7.64032619      0.85609624
  C      4.11884861      7.18041233     -0.30883447
  C      3.61183212      5.89329231     -0.36541654
  H      5.11185329      8.64950116      0.90199736
  H      4.39278636      4.87036212      2.77562132
  H      3.13387012      5.54161141     -1.27438391
  H      4.03712342      7.82915346     -1.17329256
  C      3.79471026      2.62418961     -0.79147852
  C      3.13757064      1.62114222     -1.50718877
  C      3.73954687      1.01120649     -2.59565825
  C      5.01271360      1.40181594     -2.99288680
  C      5.67712850      2.39943296     -2.29177268
  C      5.07533534      3.00689918     -1.20016614
  H      5.60192836      3.78625410     -0.66171806
  H      5.48517308      0.92593930     -3.84414834
  H      6.67015742      2.70798019     -2.59704702
  H      2.14257531      1.31178171     -1.20448510
  H      5.28073507      7.16142332      2.87229267
  C      3.52984199      2.47341884      2.06825527
  C      2.87313231      2.68832293      3.28727100
  C      3.18865526      1.93287344      4.40541074
  C      4.16047312      0.94382923      4.32121531
  C      4.81981542      0.72456694      3.12109752
  C      4.50904952      1.48360911      2.00130992
  H      4.39944718      0.34404322      5.19155099
  H      5.57906202     -0.04600274      3.05161428
  H      5.02633997      1.29625255      1.06774293
  H      3.21372986      0.23192023     -3.13505970
  H      2.67035551      2.11043525      5.34063221
  H      2.10966203      3.45555508      3.35376116
  P      3.50820706     -2.54306402     -0.02863058
  C      5.17631451     -1.94374385      0.40831480
  C      5.90436788     -2.45219722      1.48530652
  C      7.13866331     -1.91261932      1.81819038
  C      7.66275621     -0.85475675      1.08755016
  C      6.94448442     -0.33578140      0.01853299
  C      5.71044161     -0.87193381     -0.31389346
  H      8.62802965     -0.43788127      1.34900113
  H      5.51555186     -3.28243394      2.06316256
  H      5.15764350     -0.46434811     -1.15197174
  H      7.34327090      0.48885115     -0.56154598
  C      3.58688172     -2.60716814     -1.85110854
  C      2.44953472     -2.28357541     -2.58719111
  C      2.44941940     -2.34429324     -3.97191011
  C      3.60294627     -2.71650060     -4.64705152
  C      4.74908410     -3.03132458     -3.92844102
  C      4.74411750     -2.98132783     -2.54306167
  H      5.64530698     -3.22792195     -1.99355797
  H      3.60843816     -2.75634154     -5.73017371
  H      5.65355315     -3.32114185     -4.45046070
  H      1.55076571     -1.98000197     -2.06316751
  H      7.69548803     -2.32635517      2.65091111
  C      3.54623154     -4.29045394      0.47888302
  C      3.36174477     -4.56804196      1.83817679
  C      3.37325256     -5.87317114      2.30348151
  C      3.55852567     -6.92443380      1.41570584
  C      3.73145824     -6.66180795      0.06429273
  C      3.72295169     -5.35618003     -0.40386731
  H      3.56525130     -7.94595869      1.77686757
  H      3.87462744     -7.47825618     -0.63396892
  H      3.85218561     -5.16980369     -1.46380090
  H      1.54788848     -2.09728958     -4.52065259
  H      3.23428712     -6.06929472      3.36042018
  H      3.20439511     -3.75000814      2.53335518
  P     -0.54762207     -1.28029777      5.66554594
  C     -1.24140353     -2.78034507      6.43150015
  C     -0.42095322     -3.66863412      7.13166106
  C     -0.93540308     -4.85377315      7.63534742
  C     -2.27294192     -5.17409958      7.44122519
  C     -3.09489200     -4.30337077      6.73808505
  C     -2.58316561     -3.11898496      6.23195459
  H     -2.67395737     -6.09896713      7.83846139
  H      0.62392562     -3.42709236      7.29193574
  H     -3.23275285     -2.44508502      5.68497695
  H     -4.14020681     -4.54541691      6.58350331
  C     -1.84667807     -0.01894242      5.85315563
  C     -1.89749250      1.01393853      4.91578687
  C     -2.84578899      2.01893443      5.00814280
  C     -3.77250728      2.00240835      6.04173543
  C     -3.73552846      0.98192681      6.98248560
  C     -2.77930227     -0.01841947      6.89529994
  H     -2.75934823     -0.80511532      7.64053396
  H     -4.51785954      2.78544074      6.11730053
  H     -4.45387622      0.96619313      7.79387816
  H     -1.17983168      1.03127139      4.10268902
  H     -0.28937532     -5.52804289      8.18545136
  C      0.75500984     -0.76470481      6.82752415
  C      2.05627685     -1.20927414      6.57575426
  C      3.09830242     -0.86313279      7.42158391
  C      2.85649373     -0.05204562      8.52233934
  C      1.57032352      0.40523034      8.77493467
  C      0.52402850      0.04999087      7.93734121
  H      3.67092257      0.22538791      9.18108926
  H      1.37871313      1.04112171      9.63146504
  H     -0.47635916      0.41156647      8.14621295
  H     -2.85711809      2.81575117      4.27237265
  H      4.09968681     -1.22659278      7.22098264
  H      2.24847904     -1.82957443      5.70594648

