#B3LYP/6-31+G(d) OPT FREQ

246, Energy =   -372.43516430 au

0 1
 Au     -1.88868174     -1.00301396     -1.51504096
 Au     -0.37024344      3.22024854      0.98066333
 Au      0.91432668     -0.34933998     -1.84560087
 Au      2.81544198     -1.79285812      0.25473840
 Au     -0.02676898     -2.02996001      0.07219175
 Au      1.39272310     -1.08664126      2.29520814
 Au     -2.32086350      1.70337236      1.79586446
 Au     -0.35123271      0.65715848      0.33995441
  P      2.07139981     -0.60237604     -3.91215107
  C      3.46205959      0.49894293     -4.29807084
  C      4.78727148      0.09310873     -4.12875914
  C      5.83121877      0.96824411     -4.38666406
  C      5.56753498      2.25944811     -4.82090973
  C      4.25285640      2.68007059     -4.97744826
  C      3.20573369      1.81418714     -4.70043692
  H      6.38389936      2.93915562     -5.03434242
  H      5.00221501     -0.91636875     -3.79732714
  H      2.18100528      2.15634498     -4.80328658
  H      4.04130370      3.68622164     -5.32078613
  C      1.02053136     -0.58901689     -5.40286376
  C     -0.17966557     -1.30232187     -5.33635714
  C     -0.98466639     -1.43469527     -6.45581513
  C     -0.61688351     -0.83524370     -7.65347611
  C      0.56592326     -0.11407414     -7.72722552
  C      1.38676526     -0.00103891     -6.61455555
  H      2.31966412      0.54369847     -6.69683943
  H     -1.25061847     -0.93453170     -8.52670074
  H      0.86200239      0.35308214     -8.65921651
  H     -0.47651518     -1.76461797     -4.39943748
  H      6.85429263      0.63695365     -4.25053362
  C      2.74831641     -2.28798032     -4.06291589
  C      2.45875196     -3.24866734     -3.09517954
  C      2.88461766     -4.55895684     -3.24629708
  C      3.60168584     -4.92978857     -4.37432325
  C      3.89973156     -3.98298140     -5.34558543
  C      3.47355549     -2.67369223     -5.19581634
  H      3.92988855     -5.95528953     -4.49528852
  H      4.46147060     -4.26760458     -6.22756831
  H      3.69587486     -1.94419014     -5.96679042
  H     -1.90091399     -2.00961929     -6.39499855
  H      2.65244385     -5.29233387     -2.48269734
  H      1.88586112     -2.97013066     -2.21810670
  P      5.13313740     -2.06604725     -0.38496520
  C      5.88867037     -0.42909998     -0.63652656
  C      7.26343642     -0.21449450     -0.49516701
  C      7.79601851      1.05374481     -0.66166887
  C      6.96557610      2.12679887     -0.95923707
  C      5.59850608      1.92757671     -1.08890769
  C      5.06508125      0.65776783     -0.93215822
  H      7.38336990      3.11894597     -1.08391753
  H      7.91418532     -1.04501897     -0.24495122
  H      3.99600954      0.50353446     -1.03835166
  H      4.94546702      2.76361087     -1.31163151
  C      5.90820699     -3.15457345     -1.62615835
  C      5.60802275     -4.52043041     -1.57924689
  C      6.16403155     -5.39902735     -2.49529397
  C      7.00514755     -4.92327914     -3.49285320
  C      7.28927215     -3.56699494     -3.56561173
  C      6.74958825     -2.68822566     -2.63805830
  H      7.00054440     -1.63534119     -2.69297660
  H      7.43668230     -5.60887951     -4.21239838
  H      7.94211192     -3.18873689     -4.34376748
  H      4.93519332     -4.89581255     -0.81544673
  H      8.86328605      1.20755950     -0.55276748
  C      5.89834462     -2.57570156      1.19075972
  C      5.51592320     -1.85753069      2.32908251
  C      5.98569706     -2.20867327      3.58278000
  C      6.84372482     -3.29220270      3.72359489
  C      7.23572244     -4.00919169      2.60254632
  C      6.76903578     -3.65503171      1.34405892
  H      7.20644587     -3.57415172      4.70503039
  H      7.91013145     -4.85160050      2.70427888
  H      7.08952528     -4.22380818      0.47914897
  H      5.93623532     -6.45688555     -2.43267106
  H      5.67625946     -1.64002013      4.45252934
  H      4.84376258     -1.01205695      2.22472884
  P     -0.28593987     -4.37079020      0.46657925
  C     -1.81771824     -4.97188890      1.24030599
  C     -2.36516927     -6.22632377      0.96262085
  C     -3.54026955     -6.62838530      1.57813879
  C     -4.18059543     -5.78822757      2.47880696
  C     -3.64656629     -4.53744908      2.75763512
  C     -2.47814287     -4.12677243      2.13636809
  H     -5.09753359     -6.10572908      2.96117929
  H     -1.87078519     -6.88978237      0.26233164
  H     -2.07167133     -3.14154402      2.34159342
  H     -4.14688958     -3.87735863      3.45655444
  C      1.04598785     -4.89415292      1.58890520
  C      2.35570637     -4.96312422      1.10056939
  C      3.41979473     -5.17778423      1.96098678
  C      3.19625057     -5.31393245      3.32520567
  C      1.90182646     -5.24437661      3.82139810
  C      0.83337454     -5.03220199      2.96129274
  H     -0.17252864     -4.97165516      3.36137592
  H      4.03055728     -5.47313709      3.99829462
  H      1.71953349     -5.35620860      4.88398935
  H      2.53831302     -4.85229663      0.03705545
  H     -3.95647197     -7.60359365      1.35398522
  C     -0.07809697     -5.38248375     -1.02941313
  C     -0.52505292     -4.86050211     -2.24597349
  C     -0.39669360     -5.58604629     -3.41923826
  C      0.18621433     -6.84604522     -3.39391342
  C      0.63723661     -7.37542348     -2.19187489
  C      0.50672106     -6.65227126     -1.01567058
  H      0.29169467     -7.41381775     -4.31078384
  H      1.09276198     -8.35850199     -2.16830751
  H      0.86353083     -7.07263305     -0.08245943
  H      4.42819200     -5.23249886      1.56691295
  H     -0.74653877     -5.16390860     -4.35450203
  H     -0.97490928     -3.87300201     -2.27083650
  P      0.14939739      5.48268236      0.48711024
  C     -1.32831680      6.31246460     -0.17755821
  C     -1.52935763      7.69396338     -0.12122013
  C     -2.67147537      8.26028509     -0.66653222
  C     -3.62568659      7.46008361     -1.27972851
  C     -3.43519903      6.08617155     -1.34438691
  C     -2.29796378      5.51768816     -0.79413074
  H     -4.51694038      7.90527075     -1.70601712
  H     -0.79327877      8.32944495      0.35752591
  H     -2.15644237      4.44262417     -0.84055559
  H     -4.17494714      5.45562153     -1.82417588
  C      1.35157534      5.63914983     -0.86977214
  C      1.98961797      4.48739338     -1.33253628
  C      2.89761792      4.55642383     -2.37728154
  C      3.17969896      5.77710894     -2.97378656
  C      2.54866787      6.92951701     -2.52350357
  C      1.63940649      6.86298698     -1.48021743
  H      1.14780260      7.76601793     -1.13615493
  H      3.89109306      5.83101209     -3.78976362
  H      2.76561820      7.88443961     -2.98784777
  H      1.77479195      3.53274041     -0.86330405
  H     -2.81583519      9.33304036     -0.61252500
  C      0.76306594      6.60407577      1.77760124
  C     -0.12593830      7.08263809      2.74648283
  C      0.33092541      7.87125827      3.79113829
  C      1.68192274      8.17846369      3.89312758
  C      2.57480135      7.69108135      2.94897268
  C      2.12195408      6.90502933      1.90017611
  H      2.03763174      8.79557467      4.70965009
  H      3.63041882      7.92421700      3.02710826
  H      2.82609800      6.53042250      1.16563646
  H      3.38251286      3.65293519     -2.72800219
  H     -0.37042124      8.24764240      4.52681758
  H     -1.18099932      6.84025595      2.67488371
  P     -3.35568382      0.07780862     -3.06500918
  C     -4.83921117      0.98149736     -2.51637759
  C     -4.91854007      2.37259778     -2.45009425
  C     -6.08964242      2.98524105     -2.03003626
  C     -7.18822742      2.22077167     -1.66500258
  C     -7.10955347      0.83480286     -1.69831085
  C     -5.94284048      0.21914030     -2.11813254
  H     -8.10608225      2.70420764     -1.35304720
  H     -4.07073965      2.98038150     -2.74480496
  H     -5.88775311     -0.86378783     -2.15509090
  H     -7.96128875      0.23282519     -1.40361108
  C     -4.00525467     -0.95647633     -4.40798273
  C     -3.64237257     -2.30408033     -4.44938429
  C     -4.12690887     -3.13617525     -5.44784301
  C     -4.98337884     -2.62944450     -6.41600317
  C     -5.35920266     -1.29272612     -6.37897702
  C     -4.87948181     -0.46014721     -5.38064727
  H     -5.18918478      0.57840731     -5.34697171
  H     -5.36343938     -3.27796361     -7.19648661
  H     -6.03355447     -0.89735351     -7.12960889
  H     -2.97666070     -2.69969387     -3.68879531
  H     -6.14645256      4.06733451     -1.99534001
  C     -2.30283764      1.33894811     -3.85016546
  C     -1.57149191      2.17473894     -2.99789871
  C     -0.66751572      3.09387996     -3.50408097
  C     -0.47112792      3.18864760     -4.87598300
  C     -1.18828392      2.36446863     -5.73196160
  C     -2.09629996      1.44566966     -5.22521721
  H      0.23650693      3.90589850     -5.27523773
  H     -1.03683929      2.43073697     -6.80326386
  H     -2.64061397      0.80212992     -5.90645700
  H     -3.83864766     -4.18089126     -5.46603549
  H     -0.11041530      3.73129909     -2.82634032
  H     -1.71403271      2.09848084     -1.92531941
  P     -4.53042312      1.43728804      2.56860231
  C     -5.68843431      2.64380254      1.85280792
  C     -7.06069642      2.41231377      1.73262027
  C     -7.90103335      3.41593183      1.27362369
  C     -7.38246270      4.65239211      0.91075422
  C     -6.01565134      4.88152294      0.99696682
  C     -5.17581015      3.88491779      1.46795400
  H     -8.04277286      5.43441579      0.55497888
  H     -7.47211329      1.44353595      1.99285364
  H     -4.10849874      4.06810319      1.54140690
  H     -5.60211812      5.83963784      0.70282307
  C     -4.80772795      1.60163143      4.35882531
  C     -3.68791964      1.56377754      5.19191738
  C     -3.82344459      1.66322964      6.56741287
  C     -5.08286105      1.81401151      7.13041090
  C     -6.20230738      1.87841341      6.31132116
  C     -6.06902076      1.77742703      4.93532059
  H     -6.94924582      1.84988925      4.30709552
  H     -5.19138400      1.89157884      8.20576582
  H     -7.18623505      2.01135646      6.74582656
  H     -2.70287925      1.45475242      4.75048818
  H     -8.96662382      3.23151747      1.20183005
  C     -5.20130361     -0.19132274      2.10295091
  C     -4.71115404     -0.75454884      0.92194806
  C     -5.11846337     -2.01117459      0.50768917
  C     -6.03120990     -2.72836382      1.26991335
  C     -6.52728441     -2.18156705      2.44558488
  C     -6.11348863     -0.92482475      2.86451727
  H     -6.34860405     -3.71451844      0.95207317
  H     -7.23712691     -2.73894051      3.04570263
  H     -6.49775349     -0.51739481      3.79237650
  H     -2.94427394      1.62358121      7.20053347
  H     -4.71497255     -2.43396556     -0.40575108
  H     -3.99516770     -0.19834044      0.32545343
  P      0.82977482     -0.37042108      4.48166191
  C      2.08331886     -0.84748742      5.70603197
  C      2.42689294     -0.06961949      6.81390591
  C      3.40679400     -0.50293087      7.69439908
  C      4.05418635     -1.71244304      7.48214124
  C      3.72288308     -2.49169492      6.38105500
  C      2.74806848     -2.05922938      5.49668363
  H      4.82023998     -2.04627275      8.17202858
  H      1.93035619      0.87899925      6.98417052
  H      2.49641281     -2.66329265      4.63058344
  H      4.22590469     -3.43647829      6.20878357
  C     -0.74102732     -0.98903412      5.16444230
  C     -1.82896709     -1.09765560      4.29440997
  C     -3.05509663     -1.55328557      4.75115694
  C     -3.20814391     -1.92384341      6.08068921
  C     -2.13069180     -1.83323694      6.95043023
  C     -0.90444465     -1.36874207      6.49788187
  H     -0.06829663     -1.30137673      7.18439039
  H     -4.16710012     -2.28238231      6.43581895
  H     -2.24430734     -2.12332585      7.98845821
  H     -1.71121757     -0.81374563      3.25274867
  H      3.66656418      0.10873786      8.55053452
  C      0.68516165      1.43682141      4.63086053
  C      1.41550228      2.22553315      3.73814131
  C      1.32942961      3.60914398      3.78407982
  C      0.49947606      4.22166520      4.71518470
  C     -0.23023115      3.44839594      5.60658275
  C     -0.13520857      2.06506314      5.56989368
  H      0.42494205      5.30233102      4.74607689
  H     -0.87401043      3.92330780      6.33794106
  H     -0.69690183      1.46728199      6.27844368
  H     -3.89584460     -1.61176814      4.07014661
  H      1.91854735      4.21015149      3.10115453
  H      2.06033675      1.74751823      3.00866019

