#B3LYP/6-31+G(d) OPT FREQ

246, Energy =   -372.42371536 au

0 1
 Au     -0.36922270     -2.28104299     -1.05258051
 Au     -0.06095597     -2.40871076      1.65552111
 Au     -0.50682901      0.04841475      0.51754070
 Au     -2.39958590      1.90181298      0.70556777
 Au      3.91629993     -1.97295875     -1.42150513
 Au     -0.56786510      2.04476099     -1.21052748
 Au      4.24600327     -0.16573326      0.39974529
 Au      1.86573596     -1.31526894      0.13481920
  P      3.80055568     -3.70561547     -3.04122798
  C      5.16522947     -4.85947760     -3.37164715
  C      5.17577088     -6.16398048     -2.87259069
  C      6.26727965     -6.98952780     -3.09594168
  C      7.36220123     -6.52320139     -3.80972379
  C      7.36825786     -5.22227752     -4.29646821
  C      6.28210830     -4.39209705     -4.07369825
  H      8.21252667     -7.17166818     -3.98454574
  H      4.32503698     -6.53746770     -2.31401800
  H      6.29233761     -3.37503769     -4.45165619
  H      8.22309689     -4.85208237     -4.85043294
  C      3.35733267     -3.05874557     -4.68300324
  C      2.79951500     -1.77970989     -4.75449419
  C      2.46284080     -1.22158196     -5.97724347
  C      2.67005691     -1.93721089     -7.14888970
  C      3.22351179     -3.20968066     -7.09154069
  C      3.57057984     -3.76597659     -5.86914830
  H      4.02220330     -4.75082762     -5.83784533
  H      2.40986344     -1.49943335     -8.10537348
  H      3.39695555     -3.76835264     -8.00382326
  H      2.64269395     -1.21437350     -3.84106111
  H      6.26025716     -8.00230083     -2.70988571
  C      2.40327033     -4.79606276     -2.59890555
  C      1.94397919     -4.79598487     -1.28021093
  C      0.87643679     -5.59331318     -0.89383913
  C      0.26191298     -6.42234621     -1.82173409
  C      0.72508683     -6.45187007     -3.13009483
  C      1.77937607     -5.64020551     -3.52011995
  H     -0.57093093     -7.04903704     -1.52437315
  H      0.25732988     -7.10749251     -3.85527787
  H      2.11852486     -5.66296522     -4.54948093
  H      2.04689606     -0.22152389     -6.01699737
  H      0.53545829     -5.57588372      0.13548656
  H      2.43928157     -4.17402317     -0.54438022
  P     -1.22390646      3.60072286      2.43209544
  C     -1.96473841      4.56448627      3.80046990
  C     -1.49860176      4.53268596      5.11574692
  C     -2.15038870      5.25100600      6.10700400
  C     -3.27280196      6.00824510      5.80135682
  C     -3.74921051      6.04259895      4.49751466
  C     -3.10547238      5.31969386      3.50616417
  H     -3.77979640      6.56690573      6.57923568
  H     -0.62272540      3.94531629      5.36680560
  H     -3.49534738      5.32958780      2.49305189
  H     -4.63041910      6.62470738      4.25357677
  C     -0.14503764      4.81014632      1.58474145
  C      0.86725404      4.33977614      0.74064842
  C      1.57818336      5.21024879     -0.07062323
  C      1.29447683      6.57019223     -0.05294708
  C      0.29765537      7.05080139      0.78389548
  C     -0.42053631      6.17941878      1.58927469
  H     -1.20199853      6.57086679      2.23060646
  H      1.84581808      7.24849382     -0.69335756
  H      0.07081223      8.11047530      0.80556226
  H      1.10948979      3.28208105      0.72980492
  H     -1.77815303      5.21833241      7.12454988
  C     -0.04923486      2.49140553      3.28959029
  C     -0.51717789      1.20987078      3.59738941
  C      0.29884885      0.27916492      4.21935232
  C      1.60542584      0.61444616      4.54610226
  C      2.08197879      1.88396096      4.25183097
  C      1.26577681      2.81649819      3.62664964
  H      2.24603818     -0.11037399      5.03551342
  H      3.09858133      2.15200698      4.51490394
  H      1.65532455      3.80278750      3.40045334
  H      2.35133999      4.82623784     -0.72669886
  H     -0.08852314     -0.70535504      4.45442300
  H     -1.54102669      0.94614000      3.35695050
  P      0.50047537      2.84471880     -3.14938155
  C     -0.16593753      2.21357732     -4.71992187
  C     -0.66601396      3.03681348     -5.72899707
  C     -1.17152800      2.48566297     -6.89773296
  C     -1.18092694      1.10978271     -7.07455098
  C     -0.69807745      0.28032551     -6.06980947
  C     -0.20492466      0.82619565     -4.89601577
  H     -1.56927469      0.68090432     -7.99078917
  H     -0.65536337      4.11319180     -5.60239661
  H      0.15576086      0.17569896     -4.10488411
  H     -0.71555118     -0.79592301     -6.19893121
  C      2.26887021      2.42162339     -3.26313074
  C      3.00470212      2.30608804     -2.08194616
  C      4.36075938      2.02153929     -2.12093567
  C      4.99566185      1.80661864     -3.33620585
  C      4.26989819      1.89750318     -4.51582599
  C      2.91988741      2.21307786     -4.48209963
  H      2.36599578      2.29675921     -5.41005249
  H      6.05331903      1.57190817     -3.36185391
  H      4.75831710      1.73145137     -5.46895740
  H      2.51035775      2.44035573     -1.12631725
  H     -1.55487870      3.13605408     -7.67528960
  C      0.43903799      4.65311089     -3.29391222
  C     -0.67257852      5.30206984     -2.74834511
  C     -0.77884188      6.68199346     -2.79844462
  C      0.23064834      7.43359464     -3.38578084
  C      1.34259398      6.79974855     -3.92434139
  C      1.44939143      5.41804713     -3.88100835
  H      0.15244516      8.51379714     -3.42016367
  H      2.13309862      7.38447872     -4.38018517
  H      2.32238009      4.93093543     -4.30051250
  H      4.92718923      1.97385389     -1.19811529
  H     -1.64588852      7.17171332     -2.36984738
  H     -1.45304648      4.71448011     -2.27518468
  P     -4.74882217      2.24731827      1.04232877
  C     -5.88482069      0.88167175      0.62656311
  C     -6.98733694      0.52474696      1.40640382
  C     -7.77379799     -0.56268709      1.05348880
  C     -7.47403806     -1.30486887     -0.08038636
  C     -6.38300393     -0.95588800     -0.86586793
  C     -5.59170757      0.12317076     -0.51023047
  H     -8.08825129     -2.15552138     -0.35214616
  H     -7.23124271      1.09835317      2.29319320
  H     -4.73188946      0.38371361     -1.11842462
  H     -6.14361596     -1.53071630     -1.75360094
  C     -5.33799327      3.63839333      0.03063861
  C     -4.41153135      4.62955613     -0.30446209
  C     -4.79012672      5.72414311     -1.06414449
  C     -6.10128028      5.83939003     -1.50710979
  C     -7.02789592      4.85517109     -1.19068715
  C     -6.65188170      3.75985814     -0.42768767
  H     -7.37937986      2.99158890     -0.19100525
  H     -6.39935734      6.69427653     -2.10264773
  H     -8.05041597      4.94036140     -1.53992062
  H     -3.38467713      4.53456173      0.03433144
  H     -8.62638501     -0.82930419      1.66741436
  C     -5.20966778      2.70168855      2.74484976
  C     -4.48930953      2.11200845      3.78703791
  C     -4.76951324      2.42280750      5.10754056
  C     -5.77214244      3.33611325      5.40541322
  C     -6.49080062      3.93386628      4.37892323
  C     -6.21343030      3.62147781      3.05650106
  H     -5.98900265      3.58629032      6.43720491
  H     -7.27115679      4.65027020      4.60799138
  H     -6.77522552      4.09900354      2.26180436
  H     -4.06044546      6.48649954     -1.31354515
  H     -4.19954120      1.95815335      5.90397173
  H     -3.69681716      1.40799129      3.55420685
  P      5.60828352      1.20361027      1.81124424
  C      5.08975136      2.79684321      2.53743011
  C      5.35663315      3.14474683      3.86453535
  C      4.96076024      4.37757641      4.36242798
  C      4.29735995      5.28045269      3.54358461
  C      4.02843494      4.94525219      2.22320199
  C      4.41358898      3.71033614      1.72519251
  H      3.99195450      6.24514849      3.93123578
  H      5.88181160      2.45106702      4.51072189
  H      4.19415368      3.45197427      0.69429723
  H      3.51566185      5.64942963      1.57875501
  C      7.17394666      1.62586751      0.98869929
  C      7.59660314      0.81518361     -0.06809835
  C      8.78019918      1.08240244     -0.73632278
  C      9.55776001      2.16971262     -0.36044832
  C      9.14614512      2.98641831      0.68391167
  C      7.96259598      2.71996913      1.35499626
  H      7.64610434      3.36806701      2.16431507
  H     10.48241594      2.38221118     -0.88400502
  H      9.74902329      3.83773605      0.97803996
  H      6.98670004     -0.03247433     -0.36472470
  H      5.17663647      4.63342779      5.39322001
  C      6.09829174      0.21662949      3.25909478
  C      5.13816761     -0.63807292      3.80770422
  C      5.43337454     -1.41391107      4.91668796
  C      6.69799658     -1.35418246      5.48739548
  C      7.66372112     -0.51847463      4.94337815
  C      7.36879040      0.26368529      3.83686389
  H      6.93215725     -1.96355451      6.35236700
  H      8.65363005     -0.47473109      5.38249276
  H      8.13040887      0.91026342      3.41588915
  H      9.09457822      0.44324393     -1.55342094
  H      4.67705698     -2.07049698      5.33270413
  H      4.15294167     -0.69235480      3.35457282
  P     -1.98670797     -2.84505633     -2.69705932
  C     -2.69907996     -1.40069107     -3.55484793
  C     -3.24283887     -1.46477441     -4.83995821
  C     -3.82722327     -0.34251865     -5.40923674
  C     -3.87261212      0.85764081     -4.71277223
  C     -3.33042766      0.93340202     -3.43733572
  C     -2.75373650     -0.18941639     -2.86577409
  H     -4.32352388      1.73271615     -5.16551400
  H     -3.20518948     -2.39157232     -5.40048245
  H     -2.33570684     -0.12986841     -1.86856039
  H     -3.35215876      1.86585432     -2.88438897
  C     -3.46837160     -3.55461893     -1.91452638
  C     -3.46218272     -3.79507863     -0.54029483
  C     -4.58404248     -4.29879307      0.09901227
  C     -5.73395504     -4.56757551     -0.62921052
  C     -5.75943256     -4.32161659     -1.99638072
  C     -4.63927851     -3.81361710     -2.63546968
  H     -4.67573439     -3.60901885     -3.69954994
  H     -6.61188035     -4.96259880     -0.13181598
  H     -6.65765586     -4.52337506     -2.56814781
  H     -2.56729499     -3.57761432      0.03305978
  H     -4.24583039     -0.40653498     -6.40685657
  C     -1.54295853     -3.95082819     -4.07026644
  C     -0.50454576     -3.53514792     -4.91144161
  C     -0.12083624     -4.31081562     -5.99270227
  C     -0.75536987     -5.52188764     -6.23986396
  C     -1.76563536     -5.95745800     -5.39376811
  C     -2.15668127     -5.18034942     -4.31231949
  H     -0.45729762     -6.12719130     -7.08764874
  H     -2.25769300     -6.90550622     -5.57693422
  H     -2.94495571     -5.53268047     -3.65734575
  H     -4.56049966     -4.47960803      1.16751312
  H      0.67530574     -3.97000801     -6.64454393
  H      0.00292046     -2.59615967     -4.71353458
  P     -1.07373864     -3.64645296      3.40256684
  C     -1.00091272     -5.45478138      3.23445853
  C     -0.45044840     -6.29240720      4.20560978
  C     -0.37642980     -7.66065388      3.98887341
  C     -0.84566848     -8.20864312      2.80377017
  C     -1.38983023     -7.38323298      1.82748534
  C     -1.46018699     -6.01629808      2.03767963
  H     -0.78673535     -9.27787498      2.63834104
  H     -0.08148886     -5.87406024      5.13489238
  H     -1.88263118     -5.37345368      1.27254885
  H     -1.75785898     -7.80494447      0.89896101
  C     -2.85109903     -3.26725416      3.45075576
  C     -3.26477097     -2.00204013      3.02631640
  C     -4.60707412     -1.66318806      3.01419769
  C     -5.56027951     -2.58702517      3.42049240
  C     -5.16309322     -3.84822343      3.84454027
  C     -3.81819767     -4.18886234      3.86090165
  H     -3.51658286     -5.17751022      4.18734425
  H     -6.61159882     -2.32410380      3.40093471
  H     -5.90333852     -4.57243560      4.16404735
  H     -2.52420790     -1.28037307      2.69745423
  H      0.05034044     -8.30098782      4.75203940
  C     -0.45370759     -3.29538690      5.07370588
  C      0.92598430     -3.12027248      5.22899351
  C      1.46225928     -2.82646271      6.47201935
  C      0.62740938     -2.69398238      7.57411569
  C     -0.74300289     -2.85992557      7.42902724
  C     -1.28419884     -3.15859692      6.18770144
  H      1.04557757     -2.45839880      8.54561725
  H     -1.39662759     -2.75578103      8.28726064
  H     -2.35577086     -3.28431513      6.08223287
  H     -4.91160574     -0.67843740      2.67896450
  H      2.53325383     -2.69661028      6.57965609
  H      1.57682881     -3.21340512      4.36540454

