#B3LYP/6-31+G(d) OPT FREQ

246, Energy =   -372.44059657 au

0 1
 Au     -2.01115175      3.76743446      1.16678382
 Au     -2.29312676      1.67455953      2.63544210
 Au     -1.28928577      0.68889202     -2.47800858
 Au     -1.98245435      1.38526919     -0.01791523
 Au     -2.82049694     -0.96977695     -0.94613236
 Au      2.17035744      0.34237833      0.82600922
 Au      1.72534435     -2.33852206      0.40516433
 Au     -0.12963029     -0.68074170     -0.27319998
  P      2.24183288      1.15680529      3.14469308
  C      3.89678987      1.77092068      3.59869414
  C      4.13810046      2.95919479      4.28924787
  C      5.43278834      3.31184519      4.64209672
  C      6.49703386      2.48199804      4.31967857
  C      6.26800173      1.30065938      3.62530230
  C      4.97877752      0.95210067      3.26017062
  H      7.50580183      2.75658280      4.60443293
  H      3.31399127      3.61139905      4.55405056
  H      4.80138471      0.03326750      2.70939567
  H      7.09667376      0.65328861      3.36239413
  C      1.95901058     -0.03532218      4.50119462
  C      1.48521571     -1.31530613      4.21940508
  C      1.28298930     -2.23572240      5.23697711
  C      1.56342677     -1.89180733      6.55192910
  C      2.04675978     -0.62246624      6.84527773
  C      2.24285354      0.29926996      5.83016862
  H      2.62622164      1.28574875      6.06647604
  H      1.41130674     -2.61333683      7.34594002
  H      2.27500787     -0.35090546      7.86932132
  H      1.27232279     -1.59494800      3.19302998
  H      5.60775136      4.23711143      5.17875220
  C      1.12303352      2.53856348      3.55006151
  C      1.24374500      3.72129250      2.81353446
  C      0.39555030      4.79288696      3.04938000
  C     -0.60296641      4.69397127      4.01256572
  C     -0.74785695      3.51603059      4.73467200
  C      0.10688886      2.44513431      4.50394004
  H     -1.25987323      5.53424924      4.20153031
  H     -1.51983115      3.42963526      5.49030874
  H     -0.01007063      1.53894738      5.08651700
  H      0.91190262     -3.22611068      5.00085862
  H      0.51987844      5.71131800      2.48825239
  H      2.01727458      3.80297126      2.05680348
  P     -1.98483029      5.62993413     -0.33425419
  C     -0.36828200      6.45147350     -0.49178743
  C      0.77220094      5.67875383     -0.25667395
  C      2.03502512      6.24385820     -0.32746429
  C      2.17656077      7.59046570     -0.63515438
  C      1.05087518      8.36757748     -0.87112798
  C     -0.21476934      7.80543840     -0.79709738
  H      3.16411299      8.03363781     -0.68640738
  H      0.66137844      4.62475210     -0.02245099
  H     -1.08922912      8.42190022     -0.97169560
  H      1.15765335      9.41941471     -1.10950370
  C     -3.16425863      6.99319418     -0.10264544
  C     -3.41193864      7.41312135      1.20790933
  C     -4.29784414      8.44820572      1.45895515
  C     -4.95543019      9.06999915      0.40564357
  C     -4.72349877      8.65429765     -0.89836194
  C     -3.83403392      7.62208703     -1.15493170
  H     -3.66133344      7.30094454     -2.17591897
  H     -5.65253472      9.87595653      0.60235860
  H     -5.23775979      9.13481158     -1.72262292
  H     -2.90478026      6.92135197      2.03225137
  H      2.91067565      5.63208272     -0.14137310
  C     -2.31873504      5.02078250     -2.02399993
  C     -3.17416870      3.92632502     -2.17262927
  C     -3.41692551      3.37386353     -3.42102677
  C     -2.81855156      3.92102968     -4.54896137
  C     -1.98311357      5.02200851     -4.41923191
  C     -1.73039040      5.56645762     -3.16729741
  H     -3.00967355      3.49301409     -5.52623247
  H     -1.52059946      5.45933604     -5.29658462
  H     -1.06620465      6.41870703     -3.07827968
  H     -4.47921853      8.76675524      2.47892655
  H     -4.08160179      2.52230421     -3.51401426
  H     -3.65658180      3.50406814     -1.29853491
  P      3.08102718     -4.22905908      0.82240666
  C      2.68171469     -5.53922260     -0.37189998
  C      3.63585963     -6.35135075     -0.98561198
  C      3.25038127     -7.30293228     -1.91839481
  C      1.91124805     -7.45837459     -2.24828957
  C      0.95285266     -6.65429617     -1.64490655
  C      1.33586301     -5.69593858     -0.72060372
  H      1.61338787     -8.20320315     -2.97690453
  H      4.68457598     -6.23855434     -0.73556982
  H      0.58765910     -5.05868822     -0.25960873
  H     -0.09499272     -6.76780484     -1.89862837
  C      2.84548042     -4.99733964      2.45424302
  C      3.39450643     -4.35671865      3.56991068
  C      3.18219323     -4.85773705      4.84429960
  C      2.40318424     -5.99368588      5.02525678
  C      1.84090520     -6.62743099      3.92575205
  C      2.05801874     -6.13355708      2.64753478
  H      1.62004526     -6.64062011      1.79531477
  H      2.23591354     -6.38391445      6.02220142
  H      1.23528484     -7.51609791      4.06123224
  H      3.99552525     -3.46339383      3.43467090
  H      4.00134192     -7.92667408     -2.38924732
  C      4.87762517     -3.99113565      0.70025795
  C      5.35251418     -2.89921789     -0.02927594
  C      6.71338785     -2.67995291     -0.16919347
  C      7.62006358     -3.54480821      0.42840316
  C      7.16016009     -4.62953388      1.16341567
  C      5.79925583     -4.85524731      1.29952495
  H      8.68478335     -3.37240269      0.32354995
  H      7.86547602     -5.30512016      1.63323885
  H      5.44804311     -5.70185807      1.87841384
  H      3.62427676     -4.35820925      5.69868674
  H      7.06612718     -1.83126357     -0.74475005
  H      4.64531489     -2.21783610     -0.49008611
  P     -0.45071832      0.26331961     -4.65855525
  C      0.78901762      1.38734758     -5.36202247
  C      2.15001962      1.15716487     -5.14099500
  C      3.09830407      2.06487601     -5.58435024
  C      2.70245134      3.21857161     -6.24754286
  C      1.35194514      3.46682324     -6.45625923
  C      0.40016748      2.56389710     -6.00883940
  H      3.44497827      3.92639101     -6.59662732
  H      2.46620952      0.25883048     -4.62242729
  H     -0.65301914      2.76914886     -6.16527163
  H      1.03741615      4.36922319     -6.96764120
  C     -1.78097577      0.13604564     -5.88988051
  C     -3.06337228     -0.16729539     -5.42387948
  C     -4.12245204     -0.31172760     -6.30470066
  C     -3.91555381     -0.14963335     -7.66803239
  C     -2.64689092      0.15352486     -8.14364176
  C     -1.58415745      0.29378588     -7.26431136
  H     -0.59858830      0.53186495     -7.64778667
  H     -4.74313608     -0.25710716     -8.35922747
  H     -2.48214241      0.28183253     -9.20712909
  H     -3.22918266     -0.28840965     -4.35765770
  H      4.15020794      1.86978882     -5.40777829
  C      0.35985841     -1.37009982     -4.75220019
  C      0.41235046     -2.18197415     -3.62007000
  C      1.01144307     -3.43138691     -3.66291016
  C      1.56499964     -3.89275507     -4.84954352
  C      1.51657539     -3.09632968     -5.98747499
  C      0.92076867     -1.84622023     -5.94161202
  H      2.03010038     -4.87087878     -4.88751169
  H      1.94620778     -3.45193527     -6.91676507
  H      0.89082979     -1.23339608     -6.83541687
  H     -5.11045538     -0.54667556     -5.92443900
  H      1.04194968     -4.04457657     -2.76914935
  H     -0.01933422     -1.83074704     -2.69061812
  P      3.76049369      1.36885965     -0.78587557
  C      3.02382978      2.73271658     -1.75442808
  C      3.77273189      3.75965913     -2.33532294
  C      3.15665682      4.71720611     -3.12676481
  C      1.78958817      4.65757615     -3.36218133
  C      1.03675614      3.64219042     -2.78972992
  C      1.64938958      2.69529031     -1.98640250
  H      1.31210238      5.40085988     -3.98963603
  H      4.84218244      3.81319214     -2.16699662
  H      1.05347145      1.91073556     -1.53327645
  H     -0.03047066      3.58472984     -2.96630799
  C      4.39867702      0.34014221     -2.16128533
  C      3.75088123     -0.85670715     -2.47180486
  C      4.18243080     -1.64767130     -3.52679569
  C      5.26513755     -1.24708904     -4.29642050
  C      5.90866228     -0.05016372     -4.00956406
  C      5.47965840      0.73897838     -2.95363970
  H      5.98986247      1.67222426     -2.74404974
  H      5.60520562     -1.86426327     -5.11957363
  H      6.75188964      0.27085063     -4.61004415
  H      2.89504770     -1.17258108     -1.88493907
  H      3.74938963      5.51043512     -3.56759395
  C      5.24949825      2.12245002     -0.05993220
  C      5.14009009      3.36265921      0.57837208
  C      6.23763601      3.93888168      1.19634608
  C      7.45908143      3.27788129      1.20299494
  C      7.57073479      2.02883350      0.60752177
  C      6.47322459      1.44999549     -0.01164874
  H      8.31918141      3.73132682      1.68115689
  H      8.51722095      1.50096735      0.62330775
  H      6.57054130      0.47076911     -0.46726004
  H      3.67089091     -2.57832095     -3.74425071
  H      6.13866638      4.90562632      1.67661140
  H      4.18649632      3.88074481      0.58420121
  P     -4.25094176     -2.79938696     -1.31298989
  C     -5.54501735     -2.37055719     -2.51179325
  C     -6.21760104     -3.33630072     -3.26678594
  C     -7.17399141     -2.95657052     -4.19510499
  C     -7.46928779     -1.61294726     -4.38583598
  C     -6.80562936     -0.64519184     -3.64301859
  C     -5.84941350     -1.02255833     -2.71332308
  H     -8.21570840     -1.31959135     -5.11451630
  H     -5.98395392     -4.38623624     -3.13033516
  H     -5.32737343     -0.26645212     -2.13573227
  H     -7.03210867      0.40485458     -3.78774767
  C     -5.09666173     -3.47092826      0.14692005
  C     -4.32040338     -3.69670581      1.28852725
  C     -4.90175989     -4.16391138      2.45527865
  C     -6.26945887     -4.40174907      2.50148304
  C     -7.05006906     -4.17304130      1.37682061
  C     -6.47100777     -3.70784541      0.20517130
  H     -7.08967333     -3.52841580     -0.66655618
  H     -6.72682572     -4.75949152      3.41641831
  H     -8.11800786     -4.35457069      1.41105636
  H     -3.25371629     -3.49896354      1.25607280
  H     -7.68935515     -3.71334691     -4.77494780
  C     -3.42640948     -4.21777031     -2.09697779
  C     -2.61539004     -3.95424473     -3.20547383
  C     -1.98692199     -4.98764611     -3.87919551
  C     -2.14992159     -6.29857735     -3.44742217
  C     -2.93466573     -6.56789565     -2.33418441
  C     -3.57026091     -5.53504489     -1.66037784
  H     -1.67002579     -7.10901394     -3.98334493
  H     -3.06097854     -7.58863691     -1.99252296
  H     -4.18670553     -5.75383635     -0.79613574
  H     -4.28799881     -4.33498720      3.33250599
  H     -1.36857137     -4.77154862     -4.74288087
  H     -2.48570227     -2.93040065     -3.54315035
  P     -2.89503623     -0.11314949      4.10755168
  C     -2.70815244      0.31585542      5.85893527
  C     -3.57545033      1.25594975      6.42580037
  C     -3.36904548      1.71435779      7.71705965
  C     -2.28407994      1.25799263      8.45447948
  C     -1.40487597      0.34193629      7.89415853
  C     -1.61017073     -0.12278606      6.60400321
  H     -2.12225219      1.61983491      9.46292473
  H     -4.41702186      1.62542265      5.84970721
  H     -0.91645934     -0.83700951      6.17482437
  H     -0.55125544     -0.01244902      8.46089569
  C     -2.15698953     -1.77874352      3.94970396
  C     -1.43860767     -2.09404259      2.79830266
  C     -0.92709131     -3.36868908      2.60488844
  C     -1.11785891     -4.34749754      3.56944342
  C     -1.83771399     -4.04765386      4.72012535
  C     -2.35948822     -2.77663315      4.90739947
  H     -2.92900541     -2.55779869      5.80346704
  H     -0.70961170     -5.34096949      3.42454074
  H     -1.99534908     -4.80949245      5.47459251
  H     -1.27933886     -1.33085235      2.04520316
  H     -4.05517620      2.43427596      8.14784955
  C     -4.65248543     -0.53496958      3.87767898
  C     -5.16943094     -0.44503543      2.58269567
  C     -6.48256096     -0.79686845      2.31767036
  C     -7.30012042     -1.24318290      3.34748425
  C     -6.79745961     -1.33842226      4.63808040
  C     -5.48163925     -0.99101386      4.90424296
  H     -8.32872138     -1.51635496      3.14352240
  H     -7.43311200     -1.68673620      5.44384404
  H     -5.09866241     -1.07012598      5.91532927
  H     -0.37449592     -3.59457038      1.69933741
  H     -6.86767454     -0.72334716      1.30683662
  H     -4.53156321     -0.09528476      1.77676109

