#B3LYP/6-31+G(d) OPT FREQ

246, Energy =   -372.45288081 au

0 1
 Au      1.03709546     -0.25379788     -1.99793715
 Au      0.81177636      2.68886138     -1.85651702
 Au     -0.96596659     -0.12859327      3.01610976
 Au      1.60865550     -0.70453554      2.59412951
 Au      0.00009410      1.58939968     -4.02034388
 Au     -0.07368146     -0.55492207      0.59454281
 Au     -0.92510849     -2.12214777     -1.52190918
 Au     -1.38179359      0.65262261     -1.63323110
  P      3.54305890     -1.24964826      3.83726969
  C      4.99440018     -1.86039391      2.93056676
  C      6.26089875     -1.96052293      3.51734972
  C      7.34056883     -2.42535855      2.78333465
  C      7.17467757     -2.79538551      1.45561035
  C      5.92275439     -2.70253498      0.86431190
  C      4.84058962     -2.23899609      1.59579001
  H      8.02069882     -3.15329713      0.88073338
  H      6.40369075     -1.66371911      4.55004224
  H      3.86454315     -2.16069539      1.12748931
  H      5.79208080     -2.98551363     -0.17349168
  C      3.06552598     -2.59994661      4.95987541
  C      1.75769321     -2.59475040      5.45425411
  C      1.32041904     -3.58636808      6.31727504
  C      2.18416957     -4.60671898      6.69258365
  C      3.48147287     -4.62933146      6.19934955
  C      3.92200218     -3.63446251      5.33954690
  H      4.93653868     -3.66686396      4.95946070
  H      1.84452706     -5.38581246      7.36476149
  H      4.15710361     -5.42704545      6.48541649
  H      1.07834970     -1.80348442      5.15389811
  H      8.31601661     -2.49601994      3.25020429
  C      4.23544828      0.01276664      4.95353207
  C      5.24780830      0.86698129      4.50612983
  C      5.74861179      1.86169264      5.33149022
  C      5.23536265      2.02988812      6.61073120
  C      4.21615215      1.19985081      7.05799270
  C      3.71586753      0.20112713      6.23630920
  H      5.62884126      2.80510897      7.25735614
  H      3.81163707      1.32583825      8.05556503
  H      2.92167491     -0.44246092      6.59828374
  H      0.30371193     -3.56377047      6.69324253
  H      6.54537243      2.50415522      4.97471683
  H      5.65505471      0.74422347      3.50885061
  P      1.73754868      4.08188910     -0.12993798
  C      0.75656009      5.60067199      0.07945847
  C      0.28614577      6.06331179      1.30946013
  C     -0.49150555      7.21067995      1.37670844
  C     -0.81037871      7.90896217      0.21994887
  C     -0.35826076      7.44957387     -1.01099549
  C      0.41165618      6.30079073     -1.08148778
  H     -1.41161444      8.80865567      0.27654355
  H      0.53235254      5.53099007      2.22096701
  H      0.75868225      5.94030925     -2.04428391
  H     -0.60853196      7.98733375     -1.91810540
  C      3.34219619      4.68424198     -0.73632144
  C      4.11417020      3.80563084     -1.49991998
  C      5.35964937      4.18389744     -1.97377972
  C      5.84718068      5.45453138     -1.69907349
  C      5.08390331      6.34228401     -0.95250318
  C      3.84003929      5.96287515     -0.47123471
  H      3.24771608      6.66410799      0.10566066
  H      6.81929033      5.75501761     -2.07189059
  H      5.45933831      7.33709452     -0.74261317
  H      3.72866889      2.81549978     -1.71976355
  H     -0.84263765      7.56396182      2.33949875
  C      2.09661117      3.59613470      1.59596206
  C      1.16533280      2.80041033      2.26519357
  C      1.35218554      2.46751526      3.59868547
  C      2.47197454      2.91729612      4.28271960
  C      3.41823931      3.68465412      3.61912333
  C      3.23501237      4.02004500      2.28573266
  H      2.60140660      2.66964050      5.32982593
  H      4.30052244      4.03166502      4.14421378
  H      3.97601092      4.63050632      1.78293668
  H      5.94744160      3.48725226     -2.56099533
  H      0.60988455      1.87248437      4.11517422
  H      0.28269172      2.45352034      1.73883818
  P     -0.75535412      0.40624571     -5.95095193
  C      0.37181235      0.32118770     -7.37534063
  C      0.56738504     -0.83505431     -8.13485556
  C      1.45566469     -0.82999958     -9.19964309
  C      2.15539926      0.32513262     -9.52169702
  C      1.97070625      1.47884573     -8.77054460
  C      1.08977679      1.47534547     -7.70112931
  H      2.84578217      0.32627081    -10.35690229
  H      0.02676193     -1.74210635     -7.88988871
  H      0.95381242      2.37409179     -7.10853337
  H      2.51680316      2.38219854     -9.01624013
  C     -2.36655089      0.89746241     -6.63540715
  C     -3.23236139      1.62062696     -5.81175511
  C     -4.48556370      2.00051389     -6.26489523
  C     -4.88575182      1.67037708     -7.55243093
  C     -4.02839038      0.96228556     -8.38445444
  C     -2.77622115      0.57639466     -7.93223794
  H     -2.11064437      0.02603093     -8.58778077
  H     -5.86407087      1.96983496     -7.90959035
  H     -4.33653479      0.70960181     -9.39232458
  H     -2.91605115      1.88294450     -4.80699821
  H      1.59914783     -1.73277783     -9.78203656
  C     -0.99059386     -1.34335240     -5.49887951
  C      0.10909098     -2.01552894     -4.95840754
  C      0.00047670     -3.33029816     -4.53612132
  C     -1.21918517     -3.99152505     -4.63613390
  C     -2.32054459     -3.33069443     -5.15973239
  C     -2.20812086     -2.01624777     -5.59137515
  H     -1.30489613     -5.02152824     -4.31021509
  H     -3.27380637     -3.84145723     -5.23575107
  H     -3.07131496     -1.51415696     -6.01228743
  H     -5.14964552      2.55671048     -5.61264356
  H      0.87073685     -3.84157923     -4.14120520
  H      1.06100745     -1.50101252     -4.88151306
  P     -2.21918181      0.73112548      4.82869503
  C     -3.42026613     -0.28348407      5.73944487
  C     -3.95539868      0.13690650      6.96217082
  C     -4.87352715     -0.65524749      7.63233588
  C     -5.26625874     -1.87562057      7.09766006
  C     -4.72898147     -2.30890114      5.89375396
  C     -3.80837516     -1.51909031      5.22165557
  H     -5.98588989     -2.49170603      7.62373339
  H     -3.64254204      1.08247084      7.39085050
  H     -3.37595606     -1.86294754      4.28858775
  H     -5.02512013     -3.26496262      5.47730241
  C     -3.09074887      2.26639650      4.39049748
  C     -2.38684067      3.21272059      3.63815792
  C     -2.97476809      4.41492557      3.28071253
  C     -4.29068812      4.67806941      3.63856351
  C     -5.00977684      3.73349079      4.35698930
  C     -4.41535203      2.53797402      4.73492969
  H     -4.98872916      1.81330488      5.30107626
  H     -4.75366156      5.61597410      3.35552514
  H     -6.03910156      3.92965610      4.63389183
  H     -1.36770217      3.00440575      3.33417156
  H     -5.28332410     -0.31903951      8.57758816
  C     -1.06602370      1.22330348      6.15320262
  C     -0.45966411      0.19486459      6.88277816
  C      0.46814792      0.48119989      7.87021974
  C      0.81585121      1.80019007      8.13493812
  C      0.23171543      2.82715973      7.40762185
  C     -0.70474898      2.54347019      6.42361676
  H      1.53686200      2.02666425      8.91151934
  H      0.49838764      3.85788681      7.61079176
  H     -1.16184812      3.35690467      5.87223479
  H     -2.40035006      5.14947722      2.72758295
  H      0.91639143     -0.32591450      8.43821474
  H     -0.73121822     -0.83615132      6.68035670
  P      3.29452464     -0.92336217     -2.35741611
  C      3.64265310     -2.68300044     -2.02949162
  C      4.72073987     -3.36776748     -2.59707038
  C      4.95405670     -4.69731686     -2.27759533
  C      4.12879533     -5.35732199     -1.37669322
  C      3.06224026     -4.68390102     -0.79651696
  C      2.81876193     -3.35986257     -1.12704353
  H      4.31809455     -6.39409460     -1.12492563
  H      5.37966276     -2.86029717     -3.29216209
  H      1.97767633     -2.84176788     -0.67853313
  H      2.41744272     -5.18915255     -0.08646701
  C      4.48070217     -0.08142098     -1.25922691
  C      3.98872999      0.60325898     -0.14645460
  C      4.85126214      1.22797223      0.74090957
  C      6.22142591      1.17636789      0.52746225
  C      6.72360513      0.49845448     -0.57590970
  C      5.86232142     -0.12717699     -1.46375135
  H      6.26320257     -0.65248901     -2.32325413
  H      6.89744497      1.66659237      1.21814433
  H      7.79310969      0.45642989     -0.74598047
  H      2.91809520      0.65066101      0.02181883
  H      5.78894301     -5.21818990     -2.73160422
  C      3.87926466     -0.60606018     -4.04395837
  C      3.66503092     -1.54099382     -5.06231003
  C      3.93486001     -1.21645027     -6.38292953
  C      4.41258284      0.04566313     -6.70792321
  C      4.62126879      0.98484518     -5.70679295
  C      4.34956830      0.66535760     -4.38622613
  H      4.61654739      0.29888707     -7.74155779
  H      4.99140247      1.97275159     -5.95547057
  H      4.50321088      1.40763360     -3.61042166
  H      4.44953968      1.76303707      1.59374512
  H      3.76493567     -1.95088783     -7.16186101
  H      3.29343512     -2.53013327     -4.81826219
  P     -3.56471080      1.52742104     -1.30660442
  C     -3.69699869      3.33473976     -1.34919671
  C     -4.03219310      4.01522990     -2.52248397
  C     -3.98992601      5.39998323     -2.57057761
  C     -3.60406710      6.12439137     -1.45159086
  C     -3.25211135      5.45790016     -0.28551587
  C     -3.28601822      4.07420403     -0.23525699
  H     -3.57124129      7.20689193     -1.48818224
  H     -4.33117017      3.45767014     -3.40275774
  H     -2.99524089      3.55966138      0.67499160
  H     -2.94138905      6.02116063      0.58691020
  C     -4.32038269      1.01342460      0.27107237
  C     -3.96208548     -0.23858628      0.77511107
  C     -4.57577751     -0.75333955      1.90502079
  C     -5.54394801     -0.00933018      2.56607773
  C     -5.89428837      1.24536721      2.08646698
  C     -5.29549735      1.75278996      0.94271763
  H     -5.58993428      2.72733826      0.57047415
  H     -6.02346218     -0.40807624      3.45240637
  H     -6.64703626      1.83150180      2.60063536
  H     -3.19796556     -0.81802304      0.26908129
  H     -4.25815105      5.91393225     -3.48630150
  C     -4.79669052      0.90490028     -2.49356305
  C     -4.47213844     -0.20068223     -3.28160138
  C     -5.40280759     -0.74295207     -4.15452705
  C     -6.66765771     -0.18156181     -4.25835731
  C     -7.00188946      0.91872255     -3.47922327
  C     -6.07774008      1.45514058     -2.59691995
  H     -7.39354297     -0.60285954     -4.94374451
  H     -7.98988684      1.35763353     -3.55467824
  H     -6.35099620      2.30578998     -1.98257433
  H     -4.30345325     -1.74113454      2.25830068
  H     -5.14118577     -1.60787055     -4.75290559
  H     -3.48232292     -0.63956438     -3.20778833
  P     -2.12608239     -4.13143497     -1.04973006
  C     -2.34136006     -4.16918730      0.76184453
  C     -3.53331998     -4.48303096      1.41419877
  C     -3.58427233     -4.51647554      2.80126291
  C     -2.45045240     -4.23923034      3.55325184
  C     -1.25978433     -3.91708223      2.91359612
  C     -1.20830471     -3.88477395      1.53012433
  H     -2.48994852     -4.28309432      4.63534718
  H     -4.42401379     -4.70920401      0.83960265
  H     -0.27417898     -3.64455986      1.03295735
  H     -0.36922763     -3.69920974      3.49312709
  C     -1.34599460     -5.74819091     -1.34416339
  C     -0.04505093     -5.78897583     -1.84773076
  C      0.59445928     -7.00186345     -2.05406838
  C     -0.05910828     -8.18901846     -1.75521653
  C     -1.34923839     -8.15970560     -1.24080948
  C     -1.99009338     -6.94926645     -1.03082728
  H     -2.99258753     -6.93262010     -0.61763883
  H      0.43767086     -9.13808366     -1.91867154
  H     -1.85842961     -9.08539287     -0.99915096
  H      0.46869730     -4.86064873     -2.07339846
  H     -4.51467756     -4.77006882      3.29621369
  C     -3.79460387     -4.22388756     -1.75691486
  C     -4.71241638     -3.22426591     -1.41456408
  C     -5.95903069     -3.17235812     -2.01554990
  C     -6.30292049     -4.10561060     -2.98531490
  C     -5.39471161     -5.09074259     -3.34694156
  C     -4.14809420     -5.14992343     -2.74119629
  H     -7.27569752     -4.06137789     -3.46057132
  H     -5.65588954     -5.81877088     -4.10612479
  H     -3.44765926     -5.92353487     -3.03413334
  H      1.60416101     -7.01705219     -2.44861207
  H     -6.66025074     -2.39562189     -1.73271681
  H     -4.44380954     -2.48050758     -0.67232603

