#B3LYP/6-31+G(d) OPT FREQ

246, Energy =   -372.45671141 au

0 1
 Au     -1.07526056      1.35811688     -0.15499046
 Au      1.73888805     -0.75585295     -0.12858578
 Au      1.82524351      1.92153756      0.32493369
 Au      0.61653398      0.30187953      2.06757830
 Au     -1.14262596     -1.22890867     -0.36887724
 Au     -3.44245371      0.21777446     -0.56389382
 Au      1.18641955     -2.04252782     -2.46872380
 Au      3.28484237     -2.70729164     -1.09691307
  P     -0.13429803     -1.38136856     -4.35987993
  C     -0.12452102     -2.56849202     -5.73289964
  C     -0.89736902     -2.42053045     -6.89051225
  C     -0.83011946     -3.36483969     -7.90293323
  C      0.00201270     -4.46944174     -7.77681416
  C      0.76852428     -4.63077678     -6.63091370
  C      0.70411663     -3.68741734     -5.61776423
  H      0.04982196     -5.20596017     -8.57019898
  H     -1.56073776     -1.56940729     -6.99503329
  H      1.29908119     -3.81647239     -4.71936724
  H      1.41590068     -5.49347358     -6.52400075
  C      0.68864021      0.11475773     -5.00376938
  C      1.19483957      1.02087627     -4.06744882
  C      1.80809207      2.19365918     -4.47698878
  C      1.93955476      2.47516575     -5.82991101
  C      1.45870874      1.57368169     -6.76914753
  C      0.83690168      0.40326616     -6.36091104
  H      0.47098518     -0.29213005     -7.10702420
  H      2.42492102      3.38999762     -6.14908941
  H      1.56724654      1.78157087     -7.82727821
  H      1.11417139      0.79803072     -3.00825618
  H     -1.43280106     -3.23766257     -8.79472588
  C     -1.87508347     -0.82957771     -4.27014654
  C     -2.92388435     -1.70287898     -4.57134005
  C     -4.24131880     -1.27615685     -4.50340067
  C     -4.53350273      0.02453306     -4.11991012
  C     -3.50343064      0.88999394     -3.77249783
  C     -2.18495551      0.46516892     -3.84710502
  H     -5.56053203      0.36531024     -4.09700876
  H     -3.72368669      1.90771709     -3.47128956
  H     -1.38836946      1.15664960     -3.59780358
  H      2.19671115      2.88395643     -3.73769195
  H     -5.04130532     -1.95993696     -4.76239467
  H     -2.71093078     -2.71654568     -4.88974088
  P      3.49760253      3.42841699     -0.49225917
  C      3.17212841      5.14701165     -0.99970982
  C      3.83922338      6.25263229     -0.46974691
  C      3.51293572      7.53489059     -0.88793497
  C      2.51296306      7.73271547     -1.83012824
  C      1.83216520      6.64078069     -2.35345780
  C      2.15697183      5.36023348     -1.93756272
  H      2.26111466      8.73577364     -2.15328264
  H      4.61677061      6.11446997      0.27233367
  H      1.61620084      4.51086902     -2.34054038
  H      1.04506652      6.78543756     -3.08499738
  C      4.31256450      2.68892872     -1.94477243
  C      4.39465925      1.29557072     -2.00707867
  C      4.96993318      0.66497124     -3.09669782
  C      5.48500901      1.42006095     -4.14201760
  C      5.42120558      2.80540452     -4.08801396
  C      4.83689574      3.43850648     -3.00053974
  H      4.78155011      4.52058314     -2.97521031
  H      5.93372433      0.92876900     -4.99724398
  H      5.82385580      3.39976659     -4.89993641
  H      4.00003079      0.69984633     -1.19090985
  H      4.04481552      8.38356037     -0.47386364
  C      4.84727950      3.53898536      0.72014102
  C      4.59955444      3.15294260      2.03832310
  C      5.60204676      3.21036121      2.99345133
  C      6.86830679      3.65759291      2.64315862
  C      7.12953819      4.04112196      1.33348580
  C      6.12891843      3.97988537      0.37547595
  H      7.65336211      3.70418382      3.38857009
  H      8.11754384      4.38981914      1.05649514
  H      6.34347745      4.26767715     -0.64776595
  H      5.01560420     -0.41793357     -3.12861701
  H      5.39390439      2.90435563      4.01256005
  H      3.60943523      2.80415269      2.31312715
  P     -1.26417788      3.73453239      0.19607494
  C     -0.03868899      4.72821721      1.11513938
  C      0.32611930      6.02243625      0.74278543
  C      1.25975242      6.73051504      1.48451066
  C      1.85135765      6.15541430      2.60015081
  C      1.49475867      4.86977486      2.98247142
  C      0.55420270      4.16345655      2.24908402
  H      2.58748858      6.70757244      3.17222336
  H     -0.11532170      6.48017683     -0.13468283
  H      0.26536484      3.16676306      2.56647731
  H      1.94592715      4.41603985      3.85704440
  C     -2.82558247      4.11216453      1.05416993
  C     -4.02945152      3.91608397      0.37071939
  C     -5.24305412      4.09939848      1.01289334
  C     -5.27397922      4.46628508      2.35264196
  C     -4.08464312      4.65012965      3.04412175
  C     -2.86801947      4.47190742      2.40236703
  H     -1.94649544      4.61821476      2.95436919
  H     -6.22356988      4.60663235      2.85532299
  H     -4.10176927      4.93277474      4.09033400
  H     -4.00948918      3.62674818     -0.67474291
  H      1.53070571      7.73547789      1.18275934
  C     -1.43827695      4.54730955     -1.41815742
  C     -0.88584244      3.90474887     -2.52874135
  C     -0.97462645      4.46600115     -3.79273679
  C     -1.62105962      5.68303635     -3.96327307
  C     -2.18431115      6.32731749     -2.86922005
  C     -2.09791934      5.76575400     -1.60434521
  H     -1.69350654      6.12519483     -4.94988237
  H     -2.69652587      7.27315722     -3.00171954
  H     -2.55326682      6.26835372     -0.75864010
  H     -6.16813619      3.95651665      0.46620507
  H     -0.53977808      3.95151058     -4.64224524
  H     -0.38678502      2.95085465     -2.39434431
  P      5.39522684     -2.94429733      0.01292434
  C      6.49582712     -1.56566115     -0.44737747
  C      6.60286017     -0.39208420      0.30049468
  C      7.38895324      0.65802374     -0.14980378
  C      8.06961184      0.55880603     -1.35456871
  C      7.96247653     -0.60006035     -2.11237992
  C      7.17752619     -1.65119021     -1.66642786
  H      8.68180313      1.38228282     -1.70300014
  H      6.08000290     -0.29706477      1.24551312
  H      7.09682440     -2.55339189     -2.26336455
  H      8.49081044     -0.68549523     -3.05482107
  C      6.44405373     -4.41033624     -0.21196022
  C      5.88310739     -5.55591486     -0.78075921
  C      6.64661396     -6.69827632     -0.96478305
  C      7.98212128     -6.70798163     -0.58697170
  C      8.55394646     -5.57134357     -0.02988409
  C      7.79403465     -4.42768593      0.15616783
  H      8.24904413     -3.53923446      0.57977044
  H      8.58019821     -7.59989195     -0.73214012
  H      9.59843384     -5.57446600      0.25939944
  H      4.84205285     -5.54451986     -1.08716067
  H      7.46992699      1.55918335      0.44698585
  C      5.19717294     -2.75347100      1.81584756
  C      4.29945138     -1.78400779      2.27148789
  C      4.06310123     -1.60755491      3.62398086
  C      4.71887186     -2.40585550      4.55161131
  C      5.60890924     -3.37705724      4.11426623
  C      5.84683898     -3.55239291      2.75817502
  H      4.53192499     -2.27464008      5.61105138
  H      6.12169300     -4.00579447      4.83282753
  H      6.54086432     -4.31871975      2.43335974
  H      6.19885259     -7.58033613     -1.40779869
  H      3.35909202     -0.85027413      3.95189616
  H      3.76897923     -1.16784952      1.55347552
  P     -1.13877366     -3.57277248      0.10615146
  C     -1.29357978     -4.81874133     -1.20726123
  C     -1.13398497     -6.19054730     -0.98125287
  C     -1.24857502     -7.09100504     -2.02892288
  C     -1.51705020     -6.64002060     -3.31460213
  C     -1.67342114     -5.28177427     -3.55176496
  C     -1.56409296     -4.37932385     -2.50436040
  H     -1.60071329     -7.34663147     -4.13182349
  H     -0.90793159     -6.55238330      0.01526358
  H     -1.68686720     -3.31755234     -2.68815256
  H     -1.87573986     -4.92337442     -4.55444599
  C     -2.53499086     -3.85761128      1.24318063
  C     -2.84090523     -2.83368207      2.14511723
  C     -3.89130487     -2.96359055      3.03948571
  C     -4.66978391     -4.11459313      3.03141877
  C     -4.39614938     -5.12379781      2.11915203
  C     -3.33669542     -4.99944705      1.23248967
  H     -3.14121767     -5.79523998      0.52353658
  H     -5.49321774     -4.21819892      3.72813105
  H     -5.01077172     -6.01619551      2.09630651
  H     -2.25545653     -1.92028897      2.13620426
  H     -1.12277355     -8.15081244     -1.84057838
  C      0.32004071     -4.12457349      1.05212070
  C      1.35085106     -4.84812867      0.44407048
  C      2.48681631     -5.19604407      1.16169381
  C      2.62249305     -4.81015214      2.48755064
  C      1.62321414     -4.05882928      3.08958475
  C      0.48438106     -3.71698935      2.37777677
  H      3.50658417     -5.08965320      3.04803621
  H      1.72939505     -3.74088693      4.12041236
  H     -0.29248803     -3.13758491      2.86359807
  H     -4.10820231     -2.16204298      3.73669840
  H      3.26247204     -5.78182392      0.68288891
  H      1.25691475     -5.16621442     -0.58718498
  P     -0.31648547      0.23105452      4.26082870
  C     -0.01521628     -1.23794243      5.29551609
  C      1.15738482     -1.36600580      6.04400848
  C      1.42427357     -2.53431147      6.74123797
  C      0.52943192     -3.59526888      6.69772918
  C     -0.63821756     -3.48093257      5.95502109
  C     -0.90642111     -2.31511405      5.25469162
  H      0.73945713     -4.50689718      7.24423903
  H      1.86133007     -0.54303410      6.09351306
  H     -1.82290624     -2.23564200      4.68181268
  H     -1.34419421     -4.30254605      5.91774234
  C     -2.10873891      0.50849568      4.37138105
  C     -2.77617807      1.00922970      3.25325802
  C     -4.13524375      1.27247394      3.29450734
  C     -4.84557839      1.05098562      4.46590523
  C     -4.19787335      0.54284700      5.58380905
  C     -2.84001839      0.26805936      5.53939707
  H     -2.34336540     -0.13545739      6.41429125
  H     -5.90569720      1.27033991      4.50619397
  H     -4.75250887      0.36186484      6.49709476
  H     -2.21966975      1.19918042      2.34174864
  H      2.33484626     -2.61415155      7.32382637
  C      0.42424743      1.58881230      5.22156490
  C      1.79162813      1.82734508      5.04985032
  C      2.43249910      2.82487274      5.76836395
  C      1.71069652      3.61428997      6.65479999
  C      0.34811693      3.40333851      6.81324114
  C     -0.29197567      2.39690355      6.10580195
  H      2.20948096      4.39565100      7.21575687
  H     -0.22153676      4.02275080      7.49621606
  H     -1.35582486      2.24191249      6.24326434
  H     -4.63837636      1.65515534      2.41374289
  H      3.49668677      2.98458836      5.63685334
  H      2.35404861      1.22787094      4.34152894
  P     -5.75673169     -0.34305592     -0.53658544
  C     -5.96016595     -2.11363483     -0.89906118
  C     -7.10074421     -2.84256788     -0.54553274
  C     -7.19229221     -4.19349654     -0.84271909
  C     -6.15303226     -4.83795635     -1.50010697
  C     -5.01778809     -4.12511132     -1.85955970
  C     -4.92204461     -2.77632200     -1.55707582
  H     -6.22656026     -5.89431800     -1.73030377
  H     -7.91623811     -2.35360996     -0.02519716
  H     -4.02966028     -2.22501116     -1.83395823
  H     -4.20191645     -4.62052389     -2.37338487
  C     -6.82155449      0.52401998     -1.73374226
  C     -6.53099026      1.86308913     -2.01240297
  C     -7.32089712      2.59170574     -2.88757152
  C     -8.40815433      1.98804088     -3.50504261
  C     -8.69813218      0.65538504     -3.24612763
  C     -7.91315408     -0.07414370     -2.36613640
  H     -8.14917772     -1.11452046     -2.17469111
  H     -9.02585372      2.55469455     -4.19170829
  H     -9.54219034      0.17894717     -3.73114666
  H     -5.67024973      2.32824419     -1.54415619
  H     -8.08086868     -4.74540061     -0.55904691
  C     -6.67210501     -0.12474265      1.02480599
  C     -6.57873725     -1.09524495      2.02640471
  C     -7.26238359     -0.94417178      3.22197976
  C     -8.03444954      0.18917104      3.44527292
  C     -8.10917040      1.17454747      2.46960154
  C     -7.43298700      1.02097385      1.26899540
  H     -8.57845400      0.30194412      4.37552502
  H     -8.70502359      2.06384764      2.63945728
  H     -7.51186519      1.79017477      0.50892939
  H     -7.08383526      3.62972907     -3.09054076
  H     -7.19360389     -1.71504289      3.98103802
  H     -5.97754829     -1.98177868      1.85937918

