#B3LYP/6-31+G(d) OPT FREQ

246, Energy =   -372.45699430 au

0 1
 Au      1.01771194      0.12041999      2.33720201
 Au     -0.97908471      0.75276546     -1.62930479
 Au      1.35991068     -0.47525921     -2.88923206
 Au      3.28214393     -0.79868027      1.12089239
 Au      1.52793837      2.06998403     -2.42814922
 Au     -1.42542128      1.40240999      1.09469266
 Au      1.34638805      0.36967551     -0.22744687
 Au     -1.06634672     -1.14922789      0.54275364
  P      5.16386203     -2.24919847      1.28349036
  C      6.11321659     -2.19318543     -0.26646439
  C      7.50626894     -2.24761282     -0.33279427
  C      8.15167153     -2.18338039     -1.55883897
  C      7.41823359     -2.06105780     -2.73093207
  C      6.03175007     -1.99834727     -2.67639645
  C      5.38503940     -2.06191425     -1.45337276
  H      7.92594800     -2.00895150     -3.68699552
  H      8.08817109     -2.33794797      0.57740763
  H      4.30124181     -2.00728046     -1.41110886
  H      5.45320907     -1.89593189     -3.58776810
  C      4.81838045     -4.02375788      1.51507849
  C      4.12550403     -4.40147479      2.67003117
  C      3.80622470     -5.72929708      2.90067239
  C      4.17068210     -6.70129726      1.97668272
  C      4.85062025     -6.33626094      0.82269768
  C      5.16931104     -5.00646037      0.58876274
  H      5.69829924     -4.73280216     -0.31680345
  H      3.92705085     -7.74142661      2.15847488
  H      5.13624352     -7.09093513      0.09892549
  H      3.84564652     -3.64352757      3.39461843
  H      9.23395585     -2.22749529     -1.59790147
  C      6.34049474     -1.88900676      2.61901825
  C      6.30526259     -0.62058466      3.20350580
  C      7.16537979     -0.29757874      4.24099622
  C      8.06978086     -1.24064570      4.71060642
  C      8.11006630     -2.50665884      4.14121178
  C      7.25102251     -2.83305443      3.10361003
  H      8.74086799     -0.99027593      5.52377434
  H      8.81264645     -3.24563654      4.50870265
  H      7.27937823     -3.82717450      2.67174158
  H      3.27250974     -6.00709309      3.80257267
  H      7.12699944      0.69009607      4.68595981
  H      5.59311781      0.11341337      2.84004055
  P      1.35917187     -2.70385980     -3.73229006
  C      2.65669482     -3.09782627     -4.93849279
  C      3.78007489     -3.86332231     -4.61861378
  C      4.78672570     -4.05446746     -5.55416634
  C      4.69008315     -3.47836100     -6.81298009
  C      3.58404042     -2.70246463     -7.13612813
  C      2.57813706     -2.50623210     -6.20457060
  H      5.47753449     -3.63032732     -7.54162660
  H      3.86592123     -4.31680748     -3.63754376
  H      1.71877900     -1.89262730     -6.45653294
  H      3.50660512     -2.24613318     -8.11619252
  C     -0.18790862     -3.20298104     -4.55454977
  C     -1.37992341     -2.64235763     -4.09162769
  C     -2.59877088     -3.02827028     -4.62670015
  C     -2.64163569     -3.96722374     -5.64917883
  C     -1.46119099     -4.51637585     -6.13151868
  C     -0.24221831     -4.14308025     -5.58605471
  H      0.67278628     -4.58026025     -5.96867578
  H     -3.59369881     -4.26488864     -6.07231594
  H     -1.48900094     -5.24374279     -6.93441797
  H     -1.34649490     -1.89350311     -3.30624584
  H      5.65014132     -4.65662006     -5.29570186
  C      1.52828957     -3.97043007     -2.43287543
  C      1.68764349     -3.56855601     -1.10703253
  C      1.79797725     -4.50338806     -0.09046836
  C      1.75403748     -5.85776149     -0.38679409
  C      1.59809835     -6.27238804     -1.70296361
  C      1.47988350     -5.33801486     -2.71906985
  H      1.84006073     -6.58941246      0.40783607
  H      1.56105924     -7.32970485     -1.93797333
  H      1.34562758     -5.67047487     -3.74231837
  H     -3.51588947     -2.59379591     -4.24633150
  H      1.92253047     -4.17318708      0.93425579
  H      1.72367214     -2.51136608     -0.87020855
  P     -2.73260051      1.08817083     -3.26044953
  C     -2.18174985      0.64006187     -4.94048141
  C     -2.96115575     -0.09023930     -5.83913312
  C     -2.44884061     -0.46245494     -7.07312475
  C     -1.15533291     -0.11003683     -7.43151345
  C     -0.37431230      0.62913866     -6.55308364
  C     -0.88463408      0.99803759     -5.31912954
  H     -0.75608569     -0.40980176     -8.39316764
  H     -3.97182817     -0.37698330     -5.57314924
  H     -0.26734609      1.57012971     -4.63481212
  H      0.63510696      0.91523972     -6.82537257
  C     -3.41881788      2.76467434     -3.43960644
  C     -4.43077757      3.18435323     -2.56970743
  C     -4.92288312      4.47786725     -2.63209882
  C     -4.40289049      5.37771261     -3.55249512
  C     -3.38450409      4.97685900     -4.40677924
  C     -2.89047060      3.68251280     -4.34969463
  H     -2.09490693      3.38333613     -5.02309768
  H     -4.78769428      6.38933421     -3.60207892
  H     -2.97079351      5.67582183     -5.12452164
  H     -4.83960939      2.48767190     -1.84667797
  H     -3.06445820     -1.03687379     -7.75557804
  C     -4.19992257      0.05622920     -2.95459202
  C     -4.08259613     -1.02901433     -2.08391253
  C     -5.16627871     -1.85239034     -1.82098840
  C     -6.39131894     -1.59723764     -2.42272635
  C     -6.52495716     -0.51732784     -3.28548352
  C     -5.44033864      0.30373445     -3.55222656
  H     -7.24089033     -2.23754365     -2.21676329
  H     -7.48020257     -0.31247006     -3.75457652
  H     -5.55812775      1.14811711     -4.22165517
  H     -5.71330282      4.78294185     -1.95602576
  H     -5.05384575     -2.69108008     -1.14327127
  H     -3.13105969     -1.22429818     -1.60089155
  P     -1.75602039     -3.36605819      1.12497428
  C     -1.71839467     -4.80639352      0.00922898
  C     -1.40579463     -6.10158049      0.42670667
  C     -1.42684255     -7.15374839     -0.47655036
  C     -1.75309262     -6.92817813     -1.80652971
  C     -2.05240509     -5.64185552     -2.23519691
  C     -2.03009354     -4.58849685     -1.33593142
  H     -1.77059702     -7.75244314     -2.50963237
  H     -1.14687992     -6.29156470      1.46175073
  H     -2.25963967     -3.58362097     -1.67469298
  H     -2.30425159     -5.45852009     -3.27331976
  C     -3.52488099     -3.17781269      1.51459906
  C     -3.90348299     -2.03651254      2.22776668
  C     -5.23548708     -1.78732827      2.51272112
  C     -6.21450923     -2.67590569      2.08630935
  C     -5.85167650     -3.81441699      1.38075904
  C     -4.51686554     -4.06539037      1.09355417
  H     -4.24659848     -4.95635205      0.53896820
  H     -7.25766459     -2.47973675      2.30410327
  H     -6.61076700     -4.51317241      1.04890782
  H     -3.14152766     -1.33992701      2.56187090
  H     -1.18711150     -8.15477834     -0.13730224
  C     -1.05076175     -3.97207540      2.69081681
  C      0.22553443     -3.55331021      3.06851393
  C      0.80505225     -4.01896746      4.23888103
  C      0.11330104     -4.90702222      5.05200840
  C     -1.16519703     -5.31670817      4.69593992
  C     -1.74555941     -4.85298275      3.52543798
  H      0.56712565     -5.27102033      5.96615626
  H     -1.71368530     -6.00078121      5.33286832
  H     -2.74783732     -5.16927354      3.25906389
  H     -5.51010183     -0.89574497      3.06474797
  H      1.79461928     -3.68000253      4.52140511
  H      0.76449256     -2.84764090      2.44468975
  P     -2.90693491      3.19379791      1.74516632
  C     -4.53832169      2.71706069      1.08915090
  C     -5.53768804      3.66014706      0.82764588
  C     -6.76460580      3.26132080      0.32022509
  C     -7.01323522      1.91851802      0.06430975
  C     -6.03078358      0.97311063      0.32348635
  C     -4.80389154      1.37143275      0.83115274
  H     -7.97164881      1.61002621     -0.33636874
  H     -5.34949233      4.71058445      1.01976460
  H     -4.03889504      0.62883504      1.02901552
  H     -6.21593396     -0.07736783      0.12853126
  C     -2.58855162      4.75878289      0.87226013
  C     -2.22262254      4.66332036     -0.47366505
  C     -1.96121435      5.80088215     -1.21704422
  C     -2.04231452      7.05326826     -0.62203045
  C     -2.39211731      7.15961200      0.71642390
  C     -2.66797802      6.02165912      1.46072022
  H     -2.94544448      6.11753806      2.50394476
  H     -1.83149326      7.94393794     -1.20228560
  H     -2.45508933      8.13435781      1.18602161
  H     -2.14766619      3.68545254     -0.93875480
  H     -7.53117269      4.00205368      0.12456981
  C     -3.25954445      3.66960791      3.46786452
  C     -4.50805741      3.46955993      4.06222641
  C     -4.71714531      3.80759282      5.39123942
  C     -3.68583602      4.34808613      6.14593329
  C     -2.43808681      4.54251320      5.56879585
  C     -2.22098579      4.19517625      4.24523982
  H     -3.85227147      4.61573195      7.18257502
  H     -1.62713991      4.96131416      6.15306079
  H     -1.23792633      4.33433533      3.80769194
  H     -1.68985713      5.70959716     -2.26231309
  H     -5.69306478      3.65053415      5.83569219
  H     -5.32431555      3.05504063      3.48244034
  P      1.91014562      4.42254762     -2.44511601
  C      0.92062577      5.36955230     -3.64337535
  C      0.44310078      6.66383406     -3.42627622
  C     -0.28002101      7.31895718     -4.41268409
  C     -0.53367973      6.69453305     -5.62652913
  C     -0.07015202      5.40393139     -5.85059090
  C      0.64569751      4.74569646     -4.86377152
  H     -1.08800478      7.21410395     -6.39911725
  H      0.63965295      7.16382644     -2.48484784
  H      1.00472312      3.73633357     -5.03826478
  H     -0.26552446      4.91074124     -6.79579802
  C      3.62560739      4.88160043     -2.83738166
  C      4.63955809      4.05967548     -2.33631385
  C      5.97048664      4.35392758     -2.58198286
  C      6.30632834      5.46956724     -3.33812758
  C      5.30720675      6.28741500     -3.84710332
  C      3.97344244      5.99815855     -3.60042911
  H      3.19992265      6.63979403     -4.00669261
  H      7.34725923      5.69833126     -3.53403657
  H      5.56571210      7.15628116     -4.44117333
  H      4.37650618      3.18391543     -1.75112485
  H     -0.64205820      8.32457201     -4.23258918
  C      1.64509923      5.21202495     -0.82470222
  C      0.92544096      4.51311765      0.14511894
  C      0.72114102      5.05347027      1.40390485
  C      1.22634523      6.30857897      1.71143956
  C      1.95229193      7.01142181      0.75881141
  C      2.16946712      6.46575089     -0.49693101
  H      1.06035755      6.73528893      2.69380313
  H      2.35833274      7.98751603      0.99747839
  H      2.76101910      7.01061602     -1.22405740
  H      6.74704064      3.70922782     -2.18657208
  H      0.16329648      4.49109029      2.14446256
  H      0.52269973      3.53353135     -0.09064108
  P      0.47884219      0.15019059      4.64381653
  C      1.60504238     -0.84122192      5.67573286
  C      1.31519980     -1.20326002      6.99440121
  C      2.22787033     -1.93558871      7.73767926
  C      3.44480847     -2.30978452      7.18361254
  C      3.74921254     -1.94767832      5.87846032
  C      2.83411446     -1.22212411      5.13169665
  H      4.15609353     -2.88034775      7.76900186
  H      0.37205567     -0.91234318      7.44263403
  H      3.07579623     -0.94441321      4.11109905
  H      4.70098375     -2.22655744      5.44043891
  C     -1.20226799     -0.35725160      5.11035699
  C     -2.25069499      0.55182728      4.94114944
  C     -3.56098730      0.17287751      5.18240619
  C     -3.84787929     -1.12604924      5.58347913
  C     -2.81716287     -2.04339635      5.73448979
  C     -1.50484604     -1.66443519      5.49696172
  H     -0.70821495     -2.38872263      5.61818185
  H     -4.87227383     -1.42222441      5.77577092
  H     -3.03336008     -3.06131199      6.03828849
  H     -2.03132618      1.56655512      4.62725511
  H      1.98761555     -2.21250225      8.75765608
  C      0.64607157      1.82171006      5.34484420
  C      1.25100761      2.81437910      4.57206790
  C      1.45119306      4.08709925      5.08432031
  C      1.05148336      4.38327154      6.38031960
  C      0.44140658      3.40530634      7.15670270
  C      0.23650417      2.13431485      6.64407540
  H      1.21659586      5.37407667      6.78677013
  H      0.12719733      3.63325324      8.16857493
  H     -0.24358107      1.37927885      7.25612888
  H     -4.35982554      0.89544824      5.05816691
  H      1.92688159      4.84556564      4.47312094
  H      1.56943494      2.58208804      3.56130642

