#B3LYP/6-31+G(d) OPT FREQ

246, Energy =   -372.42956390 au

0 1
 Au      2.56717902     -4.07551231      0.40821441
 Au      0.00778419      0.53076519     -0.06256147
 Au     -0.46156011      3.06884615      0.86795173
 Au      1.24360645     -1.83877805     -0.24244318
 Au     -0.00316579     -4.08380617      0.55830875
 Au     -0.92511843      0.89146943      2.49571092
 Au      1.08740959     -0.15727092     -2.32272470
 Au     -2.64098384      1.44605309      0.49908382
  P     -4.86491031      1.19323943     -0.32254231
  C     -5.78475897     -0.26069740      0.28499236
  C     -6.50930627     -0.22893655      1.47867419
  C     -7.13016220     -1.37298476      1.95682745
  C     -7.03770558     -2.56583388      1.25336418
  C     -6.31949459     -2.60897239      0.06645337
  C     -5.68995756     -1.47025464     -0.40953834
  H     -7.52556975     -3.45820249      1.62719509
  H     -6.59746220      0.69642950      2.03638005
  H     -5.12895284     -1.51620873     -1.33552568
  H     -6.24707153     -3.53302924     -0.49569187
  C     -5.06764659      1.07308093     -2.12357614
  C     -3.98970142      1.39052656     -2.95190963
  C     -4.09854239      1.26033643     -4.32810744
  C     -5.28626504      0.82124512     -4.89637426
  C     -6.36864187      0.51254168     -4.08332433
  C     -6.26101864      0.63255902     -2.70726893
  H     -7.10430388      0.37043988     -2.07860748
  H     -5.36692999      0.71844865     -5.97208224
  H     -7.29881755      0.17042929     -4.52162454
  H     -3.05889979      1.73338080     -2.51057889
  H     -7.69024158     -1.33004667      2.88375302
  C     -5.90684436      2.58033898      0.22166017
  C     -5.73220222      3.03124221      1.53433232
  C     -6.55183507      4.01898988      2.05514900
  C     -7.53885621      4.59084152      1.26306933
  C     -7.69219487      4.18042143     -0.05370852
  C     -6.88613726      3.17814400     -0.57241918
  H     -8.18289900      5.36102626      1.67066145
  H     -8.45056015      4.63566296     -0.67996888
  H     -7.02275418      2.85924902     -1.59920638
  H     -3.25171470      1.49416142     -4.96171625
  H     -6.41675092      4.34580630      3.07963523
  H     -4.94668604      2.60083771      2.14774948
  P     -1.05530112      5.42698610      0.74301402
  C     -2.76139035      6.04713249      0.95133731
  C     -3.57104835      6.46919999     -0.10355483
  C     -4.84810664      6.95182363      0.14212854
  C     -5.33131776      7.02397187      1.44034785
  C     -4.54192371      6.58610596      2.49644596
  C     -3.27175601      6.09106642      2.25375205
  H     -6.32190835      7.41963734      1.63058860
  H     -3.20081019      6.44001243     -1.12161637
  H     -2.65824088      5.75218580      3.08228752
  H     -4.91479201      6.63629721      3.51294401
  C     -0.57594473      5.98269151     -0.92084527
  C     -1.14013536      5.29414255     -2.00194472
  C     -0.80445670      5.62606196     -3.30427085
  C      0.12641167      6.62747768     -3.54885695
  C      0.71408758      7.29592613     -2.48471593
  C      0.36349803      6.98096474     -1.17958156
  H      0.82249471      7.52129059     -0.36011507
  H      0.39647039      6.88054935     -4.56725067
  H      1.44769779      8.07215438     -2.66887052
  H     -1.84413031      4.48878343     -1.81585435
  H     -5.46281258      7.28417732     -0.68643663
  C     -0.16740416      6.47832416      1.93194526
  C     -0.28336734      7.87295927      1.92343180
  C      0.38252402      8.63631696      2.86855347
  C      1.15537863      8.02202804      3.84582596
  C      1.25675929      6.63865426      3.87890956
  C      0.60114404      5.87298939      2.92716843
  H      1.67153566      8.62193223      4.58601196
  H      1.85053495      6.15364070      4.64535234
  H      0.68298796      4.79115965      2.95245575
  H     -1.26474175      5.09606637     -4.13041839
  H      0.29187910      9.71604706      2.84718616
  H     -0.90681029      8.35804280      1.18074220
  P      4.83145218     -4.74615189      0.10704798
  C      5.53790492     -3.69319116     -1.19806599
  C      6.69483686     -2.92694622     -1.05764509
  C      7.11275964     -2.09223184     -2.08579945
  C      6.38277608     -2.01400267     -3.26362552
  C      5.22777050     -2.77169115     -3.41273810
  C      4.80515217     -3.59723366     -2.38579490
  H      6.70997599     -1.36220366     -4.06546501
  H      7.27407483     -2.98154722     -0.14307651
  H      3.89657312     -4.17996519     -2.49974058
  H      4.65342745     -2.71678597     -4.33027681
  C      5.10446320     -6.43230755     -0.52045597
  C      4.31662094     -7.45852845      0.00797984
  C      4.49132596     -8.76739231     -0.41170373
  C      5.45067855     -9.06688251     -1.37003734
  C      6.23216475     -8.05357347     -1.90796436
  C      6.06279933     -6.74300482     -1.48801331
  H      6.67327831     -5.95683835     -1.91757985
  H      5.58646177    -10.09006427     -1.70015788
  H      6.97916142     -8.28325668     -2.65903422
  H      3.56245112     -7.22356373      0.75244894
  H      8.01540477     -1.50429623     -1.96556384
  C      5.98864400     -4.61536252      1.50509898
  C      5.55529301     -3.97881042      2.66950531
  C      6.40106042     -3.84789144      3.76014944
  C      7.68982899     -4.35992489      3.70256173
  C      8.12791383     -5.00651957      2.55398391
  C      7.28495133     -5.13666505      1.46174633
  H      8.35152710     -4.26096049      4.55504423
  H      9.13111849     -5.41429473      2.50969700
  H      7.63012487     -5.65166790      0.57208557
  H      3.87562002     -9.55486845      0.00744650
  H      6.05150894     -3.34907609      4.65722039
  H      4.54236494     -3.59193950      2.71814730
  P      1.26847391     -0.44808528     -4.66019198
  C      0.39409556      0.71762589     -5.75086106
  C      0.61497376      0.76151510     -7.13003302
  C     -0.04363089      1.69321271     -7.91708914
  C     -0.91797923      2.60303994     -7.33817019
  C     -1.14219462      2.57158668     -5.96831294
  C     -0.49539950      1.63036079     -5.17986318
  H     -1.42147909      3.33989366     -7.95280416
  H      1.31019772      0.06579780     -7.58638485
  H     -0.67436282      1.60071592     -4.10958807
  H     -1.81286810      3.29072821     -5.51165301
  C      0.45421683     -2.05092368     -4.92518758
  C      0.85555221     -3.10673471     -4.09911210
  C      0.19754354     -4.32396536     -4.13418035
  C     -0.87962584     -4.50423346     -4.99296769
  C     -1.28592311     -3.46555756     -5.81858322
  C     -0.62767982     -2.24428206     -5.78441522
  H     -0.96131992     -1.43610019     -6.42526987
  H     -1.40400832     -5.45238141     -5.01413686
  H     -2.12582149     -3.60261624     -6.48994064
  H      1.68851207     -2.96298742     -3.41840263
  H      0.13353383      1.71476943     -8.98604802
  C      2.90510066     -0.58743745     -5.44158997
  C      3.84718860      0.39926098     -5.13581771
  C      5.10570589      0.37254212     -5.71448786
  C      5.44247180     -0.64639725     -6.59743276
  C      4.51816558     -1.63825048     -6.89650420
  C      3.25450040     -1.61198516     -6.32352410
  H      6.42629850     -0.66726301     -7.05111197
  H      4.77939970     -2.43573843     -7.58230452
  H      2.53640681     -2.38839018     -6.56135166
  H      0.51844890     -5.12961440     -3.48343023
  H      5.82548114      1.14737549     -5.47668226
  H      3.58557005      1.19320476     -4.44271654
  P      2.11879011      3.12263714      0.38883905
  C      3.13355949      4.29823437      1.35330623
  C      3.82832466      3.91126811      2.50144128
  C      4.52026584      4.84874331      3.25376287
  C      4.52465090      6.18473321      2.87616877
  C      3.83025296      6.58233539      1.74135455
  C      3.13339409      5.64944731      0.99084296
  H      5.06800775      6.91441126      3.46460046
  H      3.84130222      2.87029149      2.80424615
  H      2.58700531      5.96781820      0.10965645
  H      3.82596306      7.62387059      1.44146272
  C      2.50714263      3.57514166     -1.33669734
  C      1.54734785      3.34722277     -2.32385899
  C      1.82264910      3.61807867     -3.65573866
  C      3.06163726      4.12244692     -4.02335106
  C      4.02291861      4.36260269     -3.05063323
  C      3.75068479      4.09148159     -1.71909496
  H      4.50927999      4.28299582     -0.96895840
  H      3.27406422      4.33463784     -5.06451729
  H      4.99149526      4.76081100     -3.32959898
  H      0.57061386      2.96830583     -2.04259267
  H      5.06361915      4.53109255      4.13628559
  C      3.04403062      1.55079530      0.57556599
  C      2.80775558      0.76728403      1.70893799
  C      3.45128667     -0.44854218      1.88074809
  C      4.33850073     -0.90551763      0.91509483
  C      4.56926655     -0.14654967     -0.22290284
  C      3.92803002      1.07021427     -0.39276156
  H      4.84939703     -1.85107402      1.04920592
  H      5.25415543     -0.50168455     -0.98405418
  H      4.12160113      1.64649514     -1.28922840
  H      1.06429101      3.44160854     -4.40896044
  H      3.25658504     -1.04159387      2.76661004
  H      2.10370777      1.10838794      2.45998097
  P     -2.35862198     -4.33592707      0.43509300
  C     -3.14999838     -5.96822084      0.37868641
  C     -4.52277666     -6.15941453      0.57181336
  C     -5.07136633     -7.42896117      0.48537352
  C     -4.26209413     -8.52239312      0.20480645
  C     -2.89893829     -8.34482773      0.01352675
  C     -2.34627080     -7.07658580      0.10139964
  H     -4.69492538     -9.51355917      0.13791114
  H     -5.15970038     -5.31073949      0.79535737
  H     -1.27991447     -6.93774086     -0.04418467
  H     -2.26365355     -9.19593191     -0.20247334
  C     -2.89857363     -3.51570456     -1.10414023
  C     -2.26943744     -2.31980839     -1.45883804
  C     -2.57032374     -1.67559697     -2.64657759
  C     -3.50776279     -2.22231089     -3.51261176
  C     -4.13279755     -3.41660902     -3.18059293
  C     -3.82908677     -4.06207007     -1.98987362
  H     -4.31704878     -5.00062598     -1.75453915
  H     -3.74173715     -1.72351401     -4.44599663
  H     -4.85809416     -3.85459075     -3.85648956
  H     -1.51995119     -1.89709506     -0.80157524
  H     -6.13590646     -7.56492707      0.63717670
  C     -3.21795739     -3.44468297      1.77307941
  C     -3.63245953     -4.13255615      2.91767312
  C     -4.17280667     -3.45030718      3.99718717
  C     -4.28804565     -2.06799332      3.96288244
  C     -3.85015673     -1.37110496      2.84510394
  C     -3.31950371     -2.05176809      1.76097362
  H     -4.71402974     -1.53424551      4.80408399
  H     -3.93158304     -0.29001806      2.81152452
  H     -2.99490895     -1.49121306      0.89162417
  H     -2.06271142     -0.75095696     -2.89961043
  H     -4.50253712     -4.00129912      4.87027165
  H     -3.53710657     -5.21147500      2.96215455
  P     -0.34900355     -0.04184410      4.59055469
  C     -1.73815649     -0.33743046      5.72495738
  C     -1.80350539     -1.42784888      6.59495479
  C     -2.89027517     -1.58086720      7.44255513
  C     -3.92040067     -0.65031752      7.43519099
  C     -3.86511594      0.43769495      6.57268338
  C     -2.78288856      0.59119710      5.72113204
  H     -4.76746558     -0.77283580      8.09967018
  H     -1.00598647     -2.16168968      6.60594498
  H     -2.74347305      1.43652154      5.04128865
  H     -4.66767146      1.16604029      6.56174829
  C      0.78084508      1.00779011      5.55194137
  C      1.27441130      2.18095390      4.97879824
  C      2.13628303      3.00469638      5.68554650
  C      2.51063431      2.67019752      6.97918427
  C      2.01597779      1.51207608      7.56539995
  C      1.15583071      0.68568680      6.86042732
  H      0.76657456     -0.21260347      7.32685288
  H      3.18308608      3.31445485      7.53325284
  H      2.30011026      1.25231782      8.57845086
  H      0.97369033      2.45141228      3.97164440
  H     -2.93103474     -2.43164235      8.11270746
  C      0.47782888     -1.65641401      4.46324956
  C     -0.25701078     -2.72328281      3.93554430
  C      0.32287360     -3.97214067      3.78031443
  C      1.65464437     -4.16953226      4.12701622
  C      2.39595382     -3.11381049      4.63745267
  C      1.81548755     -1.86370075      4.80313595
  H      2.10837925     -5.14606826      4.00689381
  H      3.43016268     -3.26383057      4.92435715
  H      2.40234447     -1.05126021      5.21583544
  H      2.51399054      3.91045187      5.22451030
  H     -0.27170193     -4.79755717      3.40713908
  H     -1.29433327     -2.57320012      3.65905723

