#B3LYP/6-31+G(d) OPT FREQ

246, Energy =   -372.43421502 au

0 1
 Au     -0.61756704     -0.88532567      3.45315482
 Au      2.23981064     -1.31942756     -2.61762952
 Au     -0.59147573      1.81577190      3.61317183
 Au     -1.10989196      1.71052285     -1.39098821
 Au      0.24579163     -0.59791124     -1.02424320
 Au     -0.90683004      0.58981491      1.05615222
 Au     -2.85206380      0.53769819      3.04997444
 Au      0.76644196     -3.14886458     -1.52308384
  P     -5.12884985      0.64128565      2.31632684
  C     -5.76405066     -0.83522227      1.46265577
  C     -6.62784209     -1.73542185      2.08993671
  C     -7.06555840     -2.87086069      1.42357064
  C     -6.64692870     -3.12249821      0.12426386
  C     -5.77693786     -2.24079104     -0.50338270
  C     -5.32549301     -1.11352310      0.16325408
  H     -6.99665985     -4.00452999     -0.39910467
  H     -6.96863501     -1.54152193      3.10052212
  H     -4.63792994     -0.43410147     -0.33080822
  H     -5.44913809     -2.43115506     -1.51864730
  C     -5.40349067      1.97099382      1.09947822
  C     -4.60824402      3.11631270      1.17823180
  C     -4.81855610      4.18479556      0.32100193
  C     -5.82360945      4.12258156     -0.63437358
  C     -6.61369816      2.98492526     -0.73033909
  C     -6.40722901      1.91649518      0.12840877
  H     -7.03148577      1.03492953      0.04112097
  H     -5.99409907      4.96139550     -1.29902301
  H     -7.40399085      2.93147983     -1.47014516
  H     -3.82053883      3.17017141      1.92292662
  H     -7.74328756     -3.55590620      1.91952122
  C     -6.35875969      0.99309572      3.60768177
  C     -5.94256131      1.04221690      4.93947563
  C     -6.84783662      1.32001701      5.95198330
  C     -8.18057883      1.55477296      5.64511034
  C     -8.60603383      1.51079593      4.32336591
  C     -7.70421938      1.23349835      3.30944100
  H     -8.88889946      1.77406486      6.43527861
  H     -9.64610747      1.69509514      4.08070236
  H     -8.04367627      1.20478239      2.28005916
  H     -4.20199790      5.07183851      0.40341492
  H     -6.51059471      1.35452458      6.98139955
  H     -4.89963280      0.86017563      5.17902690
  P      4.20685182     -0.45850164     -3.62944001
  C      4.35153275      1.31116599     -4.02237300
  C      5.57780983      1.92721340     -4.29496401
  C      5.62679383      3.26584377     -4.65104471
  C      4.45612892      4.00674262     -4.74689387
  C      3.23634116      3.40868459     -4.46491683
  C      3.18502207      2.07352948     -4.09511223
  H      4.49529283      5.05105651     -5.03367299
  H      6.49687754      1.35724822     -4.21997758
  H      2.23119294      1.61408302     -3.85951356
  H      2.32066245      3.98597450     -4.52574977
  C      4.59231314     -1.31795387     -5.18641435
  C      4.18248062     -2.65104951     -5.29479406
  C      4.42261884     -3.37439266     -6.45203646
  C      5.06227685     -2.77086964     -7.52644421
  C      5.45717389     -1.44330159     -7.43749279
  C      5.22499905     -0.71974501     -6.27746256
  H      5.53548347      0.31724203     -6.22589037
  H      5.24603582     -3.33274838     -8.43453972
  H      5.94927951     -0.96502100     -8.27642744
  H      3.66424649     -3.11799398     -4.46326802
  H      6.58302824      3.73116735     -4.85990994
  C      5.63928515     -0.79097446     -2.55477052
  C      6.06220289      0.16255735     -1.62425343
  C      7.07548473     -0.13180730     -0.72412996
  C      7.66270835     -1.39031450     -0.72115679
  C      7.23708295     -2.35137528     -1.62875236
  C      6.23407275     -2.05472887     -2.53865606
  H      8.45261550     -1.61987829     -0.01577784
  H      7.69331680     -3.33456124     -1.63388005
  H      5.91452632     -2.80972054     -3.24840195
  H      4.10331075     -4.40810109     -6.51739053
  H      7.41254986      0.62712706     -0.02716501
  H      5.60209320      1.14498283     -1.60994689
  P     -0.08292057     -5.12390840     -0.53819192
  C      1.07983721     -5.86624461      0.64701388
  C      0.69165207     -6.60944398      1.76364398
  C      1.64718695     -7.16623535      2.59993152
  C      2.99842974     -6.97975270      2.34365580
  C      3.39534307     -6.23306950      1.24284096
  C      2.44267345     -5.68103561      0.40223400
  H      3.74115836     -7.41441254      3.00225208
  H     -0.36058532     -6.74826462      1.98508781
  H      2.75338078     -5.09342565     -0.45541762
  H      4.44872412     -6.07864528      1.03950711
  C     -0.57143188     -6.49076439     -1.63288319
  C     -1.05326848     -6.14903669     -2.89978785
  C     -1.46338818     -7.13111761     -3.78653395
  C     -1.38776015     -8.46915260     -3.42237053
  C     -0.89727754     -8.82025105     -2.17210252
  C     -0.48941699     -7.83972808     -1.28028533
  H     -0.09839288     -8.12420530     -0.30990237
  H     -1.70465718     -9.23869187     -4.11635775
  H     -0.82956435     -9.86413644     -1.88846709
  H     -1.10280012     -5.10330722     -3.18701899
  H      1.33355213     -7.74871884      3.45832608
  C     -1.58653591     -4.81235135      0.44993966
  C     -1.81843566     -3.51308129      0.90660687
  C     -2.95076111     -3.21291781      1.64743067
  C     -3.86713941     -4.20994684      1.95362367
  C     -3.65193694     -5.50389906      1.49955120
  C     -2.52529298     -5.80294317      0.74758114
  H     -4.75167580     -3.97526663      2.53392767
  H     -4.36991097     -6.28386603      1.72487566
  H     -2.37951799     -6.81258854      0.38081506
  H     -1.83681393     -6.85215290     -4.76519837
  H     -3.12385450     -2.19394006      1.97701626
  H     -1.10620621     -2.72951182      0.67279732
  P      1.33876280      3.15661132      3.93070380
  C      1.40923177      4.86059786      3.29984458
  C      0.82461300      5.87475463      4.06694857
  C      0.78551068      7.17746845      3.59745659
  C      1.31630305      7.48425221      2.35135633
  C      1.88940198      6.48331262      1.58018913
  C      1.93389709      5.17797321      2.04579924
  H      1.28289670      8.50237758      1.98199137
  H      0.40547559      5.63939195      5.03932203
  H      2.38646594      4.40633689      1.43320076
  H      2.30640768      6.71853086      0.60782903
  C      2.65765295      2.25816766      3.04998086
  C      2.38298829      1.79739174      1.75958091
  C      3.29749289      1.01978401      1.06997028
  C      4.50544196      0.68185794      1.66475407
  C      4.79702918      1.14090424      2.94126469
  C      3.88170694      1.92406798      3.63089236
  H      4.12071072      2.27031475      4.62972711
  H      5.21297806      0.05386885      1.13628402
  H      5.74064303      0.88341024      3.40818207
  H      1.43304980      2.04230186      1.29866666
  H      0.33678169      7.95464277      4.20499339
  C      1.92318328      3.27828234      5.64280032
  C      1.35626100      2.44086059      6.60573308
  C      1.78475274      2.48862262      7.92287679
  C      2.78834792      3.37279497      8.29421879
  C      3.35899002      4.21179138      7.34582085
  C      2.93060374      4.16965247      6.02869622
  H      3.12307404      3.41175390      9.32407924
  H      4.14072877      4.90500941      7.63367616
  H      3.37276724      4.83406112      5.29484924
  H      3.05835247      0.66224390      0.07430504
  H      1.33214354      1.83552082      8.65995168
  H      0.57172468      1.74924542      6.31559026
  P     -1.90879621      0.63479620     -3.56738531
  C     -3.22514948      1.56866770     -4.42324014
  C     -3.29909914      1.73731377     -5.80742123
  C     -4.35033957      2.44340663     -6.37278571
  C     -5.34538085      2.98087053     -5.56850618
  C     -5.28231741      2.81745260     -4.19096241
  C     -4.22698957      2.12341461     -3.62157025
  H     -6.16783807      3.52858646     -6.01313638
  H     -2.53191192      1.31900394     -6.44854393
  H     -4.17484352      2.00824489     -2.54296082
  H     -6.05517347      3.23772870     -3.55803997
  C     -2.60209750     -1.06415163     -3.57985125
  C     -2.65697253     -1.81048413     -2.40371988
  C     -3.13337636     -3.11424238     -2.41170226
  C     -3.57935946     -3.68475254     -3.59564987
  C     -3.54930431     -2.94464839     -4.77064502
  C     -3.06444239     -1.64697700     -4.76460163
  H     -3.04067539     -1.07975372     -5.68842334
  H     -3.95435790     -4.70151719     -3.60087933
  H     -3.90162821     -3.38224094     -5.69745336
  H     -2.32646534     -1.36940765     -1.47063984
  H     -4.39314490      2.56984805     -7.44836473
  C     -0.57883161      0.49016283     -4.80778383
  C     -0.09942556      1.64207841     -5.43848156
  C      0.95983239      1.57156396     -6.33122343
  C      1.57875936      0.35476512     -6.58613256
  C      1.12832218     -0.79244819     -5.94741032
  C      0.05861577     -0.72670962     -5.06625601
  H      2.41242863      0.30119563     -7.27653125
  H      1.60445999     -1.74691077     -6.14051044
  H     -0.29610215     -1.63438690     -4.59254840
  H     -3.15373287     -3.68411784     -1.49039866
  H      1.30797556      2.47229710     -6.82349052
  H     -0.56591212      2.59977663     -5.23254014
  P     -0.79538181      4.11163529     -1.60791187
  C     -1.35885865      5.18344337     -0.23940850
  C     -1.71272584      6.52416619     -0.40806622
  C     -2.11880901      7.28499669      0.67798790
  C     -2.17762907      6.72247055      1.94582532
  C     -1.82080311      5.39298205      2.12686917
  C     -1.41271936      4.63320030      1.04256020
  H     -2.49913724      7.31860775      2.79158448
  H     -1.67584295      6.97440490     -1.39329793
  H     -1.13569332      3.59432661      1.19005646
  H     -1.85854417      4.94551808      3.11389317
  C     -1.49127055      4.87594027     -3.10234518
  C     -0.73788122      5.03104871     -4.26899948
  C     -1.33214251      5.48271817     -5.43783588
  C     -2.68763977      5.78031081     -5.46168522
  C     -3.44927993      5.62014165     -4.31179380
  C     -2.86020851      5.16045637     -3.14510074
  H     -3.46551170      5.01921052     -2.25584665
  H     -3.15085799      6.13337879     -6.37535184
  H     -4.50941941      5.84540191     -4.32550995
  H      0.32311964      4.80810808     -4.25897298
  H     -2.39217028      8.32352083      0.53206533
  C      0.98203794      4.52355261     -1.65274655
  C      1.90676289      3.53394203     -1.31793601
  C      3.26309630      3.81689298     -1.25886168
  C      3.71678325      5.09492164     -1.55245399
  C      2.80828666      6.08666460     -1.90263722
  C      1.45043065      5.80801070     -1.94468019
  H      4.77649371      5.31773596     -1.51431391
  H      3.15942543      7.08366270     -2.14185362
  H      0.74902079      6.59293734     -2.20432084
  H     -0.73230222      5.60258921     -6.33262877
  H      3.96525584      3.03462818     -0.99264941
  H      1.55571493      2.53024472     -1.10716276
  P      1.02617170     -2.45433950      4.12508201
  C      0.44216001     -4.11351379      4.58785834
  C      1.20274089     -5.00541187      5.35045566
  C      0.68547689     -6.24226604      5.70185668
  C     -0.59061811     -6.61131090      5.29353851
  C     -1.35172333     -5.73592979      4.53148775
  C     -0.83967710     -4.49449000      4.18765433
  H     -0.99143059     -7.57796196      5.57458454
  H      2.19690791     -4.72819475      5.68126467
  H     -1.44112734     -3.80414851      3.60695162
  H     -2.34945993     -6.01317113      4.21071427
  C      1.81870943     -1.81617620      5.63103380
  C      2.87009171     -0.89978847      5.53050376
  C      3.42564366     -0.33895555      6.66904532
  C      2.93206501     -0.67306554      7.92337372
  C      1.87225949     -1.56278792      8.03332744
  C      1.31339895     -2.12580279      6.89639940
  H      0.48394884     -2.81745652      6.99175087
  H      3.37161460     -0.23794031      8.81306726
  H      1.47799903     -1.82136442      9.00915241
  H      3.25960495     -0.63046959      4.55470193
  H      1.28019919     -6.92020557      6.30288653
  C      2.44763275     -2.70381613      3.00622084
  C      2.37004582     -2.26961221      1.68315370
  C      3.45829914     -2.39572472      0.83304265
  C      4.64059681     -2.96062972      1.28753355
  C      4.72736242     -3.40520803      2.60048408
  C      3.64276578     -3.27711949      3.45320755
  H      5.49186772     -3.04860707      0.62204099
  H      5.64745026     -3.84639255      2.96547557
  H      3.73069628     -3.61299417      4.47979041
  H      4.24677039      0.36280140      6.57638837
  H      3.38699079     -2.03916674     -0.18777244
  H      1.45512914     -1.81473854      1.31999407

