#B3LYP/6-31+G(d) OPT FREQ

246, Energy =   -372.43112925 au

0 1
 Au     -0.71515638      1.48657235     -2.25063350
 Au     -1.27011284     -1.08477229      4.68032184
 Au      0.02563230     -0.15778613     -0.23627504
 Au     -0.96271467     -1.53907719      1.85637144
 Au      1.88821510      1.03729698     -1.65681012
 Au     -2.12436718     -3.39397231      3.68023406
 Au     -3.47179139     -1.14260944      3.20273325
 Au      1.38624869     -2.19138911      0.96521553
  P      3.94770179      2.09538399     -2.18751434
  C      3.70723746      3.45892803     -3.37115285
  C      4.72035606      3.96903539     -4.18721790
  C      4.46069028      5.01752011     -5.05702566
  C      3.19126879      5.57551000     -5.12414761
  C      2.17770741      5.08225067     -4.31397346
  C      2.43606351      4.03286672     -3.44559567
  H      2.99168656      6.39196522     -5.80806693
  H      5.71559392      3.54151900     -4.15010855
  H      1.64111436      3.64778249     -2.81575547
  H      1.18339801      5.51173280     -4.35925064
  C      5.38794250      1.18927614     -2.83038110
  C      6.39711879      0.73481756     -1.97816604
  C      7.47154169      0.01649941     -2.47931304
  C      7.55576802     -0.25695912     -3.83793875
  C      6.54451630      0.16708836     -4.69110647
  C      5.46058714      0.87029608     -4.18977638
  H      4.66619632      1.18296950     -4.85866377
  H      8.40521025     -0.80251179     -4.23147607
  H      6.59874211     -0.05190769     -5.75131545
  H      6.34632769      0.95313425     -0.91730729
  H      5.25553087      5.39969113     -5.68692751
  C      4.60057524      2.95990356     -0.72317060
  C      3.98036935      2.75956865      0.50961342
  C      4.43491039      3.40770800      1.64844523
  C      5.51714733      4.27269775      1.56568897
  C      6.14225137      4.48318006      0.34303638
  C      5.68961228      3.83333942     -0.79382616
  H      5.87308779      4.78325846      2.45282241
  H      6.98740336      5.15827884      0.27540357
  H      6.18312597      4.00488211     -1.74383494
  H      8.25023606     -0.32300691     -1.80586188
  H      3.93774188      3.24128625      2.59761692
  H      3.13418629      2.08426736      0.57154937
  P     -1.71124858     -5.49766232      2.68361282
  C     -3.09372417     -6.65093720      2.44574256
  C     -3.26765273     -7.39430627      1.27506161
  C     -4.33795780     -8.26736400      1.15671215
  C     -5.24358953     -8.40947380      2.19932965
  C     -5.08059568     -7.67261144      3.36487942
  C     -4.01460849     -6.79597796      3.48720540
  H     -6.07908297     -9.09266651      2.10235342
  H     -2.56813847     -7.28398092      0.45420590
  H     -3.89136446     -6.21579481      4.39586287
  H     -5.78721826     -7.77821537      4.17980469
  C     -0.35318186     -6.50592645      3.34787759
  C      0.46163677     -5.96081431      4.34208084
  C      1.49427646     -6.70310541      4.89326287
  C      1.72470570     -8.00125563      4.45645557
  C      0.92132555     -8.55249909      3.46579967
  C     -0.11308303     -7.81346530      2.91492913
  H     -0.74427497     -8.25381454      2.15113460
  H      2.52273541     -8.58774203      4.89620241
  H      1.09733638     -9.56635007      3.12570171
  H      0.27422932     -4.94957412      4.68892647
  H     -4.46411672     -8.83917260      0.24465797
  C     -1.19805081     -5.06789776      0.99050078
  C     -2.11314759     -4.36163496      0.20123224
  C     -1.76114372     -3.91014033     -1.05961673
  C     -0.48470123     -4.15160198     -1.55155148
  C      0.43467231     -4.84302660     -0.77431659
  C      0.08476284     -5.29423033      0.49222874
  H     -0.20747156     -3.80339209     -2.53952555
  H      1.42952795     -5.04066123     -1.15668486
  H      0.81389607     -5.82921678      1.09015560
  H      2.11327679     -6.27226118      5.67178694
  H     -2.48257362     -3.36527136     -1.65774459
  H     -3.10984141     -4.16845349      0.58374074
  P      3.48739344     -2.92407706      0.19546423
  C      4.95260660     -2.08044347      0.86757132
  C      6.15806349     -2.72770860      1.14435928
  C      7.24589353     -2.00780254      1.61653807
  C      7.14421034     -0.63849560      1.81929830
  C      5.94501251      0.01315747      1.55673414
  C      4.85601279     -0.70429209      1.08713508
  H      7.99579848     -0.07795123      2.18633905
  H      6.24472332     -3.79715245      0.99046377
  H      3.91722653     -0.19686761      0.88844810
  H      5.85504574      1.07997460      1.72632682
  C      3.65492153     -2.59933951     -1.58717151
  C      2.52309133     -2.23338341     -2.31665489
  C      2.60695803     -1.96567402     -3.67392232
  C      3.82460526     -2.08424926     -4.32777763
  C      4.95688831     -2.45723136     -3.61603899
  C      4.88021734     -2.69611181     -2.25302126
  H      5.77724499     -2.95430812     -1.70116028
  H      3.89178902     -1.88154584     -5.39029103
  H      5.90967994     -2.55132369     -4.12338111
  H      1.56633478     -2.16466549     -1.81434935
  H      8.17784974     -2.52004461      1.82540267
  C      3.82157116     -4.69961771      0.39633795
  C      3.57767492     -5.24655341      1.66053741
  C      3.76086971     -6.59940315      1.89217414
  C      4.17140349     -7.43184742      0.85892763
  C      4.39918146     -6.90353520     -0.40361856
  C      4.22465508     -5.54717273     -0.63712930
  H      4.30837249     -8.49168427      1.03834630
  H      4.71417799     -7.54962320     -1.21476848
  H      4.40337866     -5.14833355     -1.62881913
  H      1.71822956     -1.67087124     -4.22022387
  H      3.57493501     -7.00636805      2.87942662
  H      3.24106982     -4.59963704      2.46418548
  P      0.63198210      0.10326343      5.45523969
  C      0.87755782      1.67345761      4.56588152
  C      0.95442682      2.91424417      5.19969319
  C      1.09462040      4.07563121      4.45327804
  C      1.14484098      4.01648252      3.06762137
  C      1.05622192      2.78675391      2.42747584
  C      0.92738361      1.62653248      3.16985935
  H      1.24267531      4.92524485      2.48539812
  H      0.90887005      2.97221266      6.28103660
  H      0.86024442      0.67027233      2.66272234
  H      1.07037410      2.72984821      1.34533452
  C      2.13626523     -0.83100991      5.03741622
  C      2.07219552     -2.22586166      5.03385208
  C      3.19285450     -2.98603793      4.73953052
  C      4.39526617     -2.36144442      4.43697829
  C      4.47021520     -0.97524362      4.43327374
  C      3.35079332     -0.21268080      4.72776557
  H      3.41861296      0.86925962      4.71466587
  H      5.27243870     -2.95378113      4.20377042
  H      5.40730039     -0.48336081      4.20011186
  H      1.13324257     -2.71657532      5.26816496
  H      1.15964575      5.03236382      4.95828292
  C      0.79280206      0.52052950      7.21482818
  C     -0.37404043      0.84035032      7.91634299
  C     -0.31842656      1.16425001      9.26229624
  C      0.90078901      1.16171505      9.92671883
  C      2.06360374      0.83733989      9.24098088
  C      2.01437440      0.51831918      7.89292561
  H      0.94395923      1.40755260     10.98116788
  H      3.01580689      0.83013122      9.75858011
  H      2.92690990      0.26346475      7.36601565
  H      3.12849118     -4.06797796      4.75537276
  H     -1.22919115      1.41212962      9.79487256
  H     -1.32830096      0.83093938      7.39924404
  P     -1.82847580      3.50330590     -1.18232033
  C     -3.53597297      3.95084965     -1.66101241
  C     -4.14362377      5.16193085     -1.31782111
  C     -5.44850214      5.42650431     -1.70596625
  C     -6.16897115      4.48427323     -2.42895857
  C     -5.57936578      3.27421295     -2.76575634
  C     -4.27212604      3.01155344     -2.38599427
  H     -7.18868468      4.69440260     -2.72932030
  H     -3.59557549      5.90179116     -0.74571434
  H     -3.81023967      2.06735454     -2.65598207
  H     -6.13572645      2.53320113     -3.32834044
  C     -0.83227937      5.00300197     -1.47827894
  C      0.42397994      5.06540014     -0.86267194
  C      1.27136670      6.13878434     -1.08058781
  C      0.88573728      7.16427365     -1.93490827
  C     -0.34581664      7.10257383     -2.57193487
  C     -1.19798095      6.02974905     -2.34972750
  H     -2.15724745      6.00016915     -2.85307211
  H      1.54686400      8.00506081     -2.10795670
  H     -0.64957258      7.89575625     -3.24523822
  H      0.73428241      4.26271519     -0.20186944
  H     -5.90438617      6.37390843     -1.44274824
  C     -1.96591067      3.54479326      0.65033946
  C     -2.10689162      2.34312464      1.34368455
  C     -2.23178228      2.33176810      2.72360038
  C     -2.23231906      3.51997220      3.43757228
  C     -2.09329858      4.72367987      2.75965864
  C     -1.95719180      4.73684391      1.38024639
  H     -2.33371705      3.50764390      4.51640728
  H     -2.08741746      5.65816526      3.30857718
  H     -1.83634685      5.68417220      0.86790778
  H      2.23652611      6.17128961     -0.58785779
  H     -2.32861663      1.38600818      3.24605251
  H     -2.11354107      1.40662904      0.79740597
  P     -5.24897253     -0.11640710      2.02090610
  C     -6.87524421     -0.83745236      2.38819118
  C     -8.04193542     -0.07746431      2.50066784
  C     -9.25497037     -0.69601192      2.76316832
  C     -9.31927724     -2.07414855      2.91458915
  C     -8.16425470     -2.83813065      2.80759325
  C     -6.94973011     -2.22409913      2.54993597
  H    -10.26891985     -2.55363988      3.12056614
  H     -7.99921867      0.99984911      2.38857551
  H     -6.04568074     -2.82043275      2.47272039
  H     -8.20898836     -3.91421921      2.92972920
  C     -5.13679196     -0.23066052      0.20761309
  C     -3.91296312     -0.53207632     -0.38908146
  C     -3.80016017     -0.62317892     -1.76664820
  C     -4.91626059     -0.42530884     -2.56833375
  C     -6.14315563     -0.13492031     -1.98626734
  C     -6.25486241     -0.03491778     -0.60882037
  H     -7.21683803      0.18856561     -0.16139039
  H     -4.83345075     -0.50394463     -3.64558585
  H     -7.01836264      0.01094093     -2.60863455
  H     -3.04115292     -0.70394409      0.23278088
  H    -10.15377525     -0.09666237      2.84989675
  C     -5.44596671      1.65640716      2.36532408
  C     -5.55079292      2.04151567      3.70639737
  C     -5.65663319      3.37902110      4.04927573
  C     -5.64912593      4.35215583      3.05796859
  C     -5.53659103      3.98053692      1.72610620
  C     -5.43189512      2.64233590      1.37762925
  H     -5.72679156      5.39952052      3.32474948
  H     -5.52610204      4.73678708      0.94973678
  H     -5.33664308      2.36512736      0.33375665
  H     -2.84097093     -0.85636308     -2.21400910
  H     -5.74086197      3.66357609      5.09160153
  H     -5.54827406      1.28255891      4.48196163
  P     -1.05028352      1.17588570     -4.68908544
  C     -1.72935620      2.54668124     -5.68327748
  C     -1.79237235      2.48940205     -7.08012976
  C     -2.29186065      3.56108354     -7.80217908
  C     -2.72919705      4.70500006     -7.14614510
  C     -2.66059696      4.77693510     -5.76229115
  C     -2.16009684      3.70532283     -5.03906213
  H     -3.11770918      5.54136386     -7.71522191
  H     -1.44127869      1.60508585     -7.60033825
  H     -2.09625316      3.76424450     -3.95810227
  H     -2.99404500      5.66880522     -5.24381021
  C     -2.12090737     -0.25185845     -5.05948429
  C     -1.77085252     -1.48457208     -4.49448417
  C     -2.54184148     -2.61320483     -4.72384312
  C     -3.68828104     -2.52557574     -5.50304534
  C     -4.06081852     -1.30334040     -6.04513256
  C     -3.28506754     -0.17315155     -5.82456169
  H     -3.58836498      0.77374638     -6.25575123
  H     -4.29155373     -3.40744771     -5.68314759
  H     -4.95779193     -1.22727035     -6.64872843
  H     -0.88304642     -1.55573524     -3.87380144
  H     -2.33741257      3.50460308     -8.88356886
  C      0.46424625      0.80793044     -5.65174029
  C      1.40705457      1.83530203     -5.75282497
  C      2.58508530      1.65542859     -6.45834980
  C      2.84640714      0.43677039     -7.07287393
  C      1.91965097     -0.59178138     -6.97944785
  C      0.73701467     -0.41074099     -6.27422055
  H      3.76399392      0.29407898     -7.63138717
  H      2.10873021     -1.54032653     -7.46893918
  H      0.01803884     -1.22028949     -6.23034889
  H     -2.24712263     -3.56396946     -4.29433259
  H      3.29348387      2.47211990     -6.54026269
  H      1.20349574      2.79111681     -5.28292021

