#B3LYP/6-31+G(d) OPT FREQ

246, Energy =   -372.45644603 au

0 1
 Au     -0.87728776     -1.17096395     -0.60400594
 Au     -0.19243033      3.78915536      0.17630241
 Au      1.29751971      0.16687207     -2.10493267
 Au     -0.20329253      1.22225255      0.74243029
 Au      0.85268111     -1.25821568      1.42085117
 Au      2.03340089      2.43191864     -0.11706817
 Au     -1.83405371     -0.60443367      1.94834386
 Au      1.69561931     -2.24411925     -1.21943352
  P     -3.62968380     -0.85640077      3.49993997
  C     -5.23789167     -0.48692040      2.73638153
  C     -6.43258743     -1.09481006      3.12990958
  C     -7.62272581     -0.78168965      2.49045785
  C     -7.63805397      0.14227311      1.45470416
  C     -6.45671518      0.75416492      1.05656555
  C     -5.26487975      0.43816782      1.68889135
  H     -8.56903236      0.38391053      0.95560526
  H     -6.43023884     -1.82041544      3.93500925
  H     -4.34096345      0.90878909      1.36707436
  H     -6.46196655      1.47488967      0.24666878
  C     -3.48740153      0.32901348      4.86988921
  C     -2.21387839      0.79376111      5.20737739
  C     -2.04658815      1.70920043      6.23410707
  C     -3.15155974      2.17830619      6.93253926
  C     -4.42274888      1.72660384      6.60187090
  C     -4.59259647      0.80800994      5.57795310
  H     -5.58802867      0.46245506      5.32235891
  H     -3.02182608      2.89668589      7.73342160
  H     -5.28688508      2.09225564      7.14421712
  H     -1.34988359      0.43431796      4.65672844
  H     -8.54213872     -1.26186623      2.80450493
  C     -3.88977801     -2.47166773      4.29364022
  C     -4.17022007     -3.56496598      3.46648811
  C     -4.35985170     -4.82597118      4.00728737
  C     -4.24890144     -5.01879630      5.37873149
  C     -3.94818758     -3.94455982      6.20529363
  C     -3.76889724     -2.67697360      5.66849032
  H     -4.39675088     -6.00526846      5.80189055
  H     -3.86096209     -4.09008482      7.27568679
  H     -3.54199594     -1.84289968      6.32245531
  H     -1.05185184      2.05815311      6.48715002
  H     -4.59802193     -5.66034347      3.35723514
  H     -4.25479498     -3.41739903      2.39453814
  P     -2.76580821     -1.56654765     -2.00809891
  C     -3.83289770     -2.84447087     -1.28191413
  C     -4.89989696     -2.51227060     -0.44413220
  C     -5.63230088     -3.50425275      0.19056511
  C     -5.30367258     -4.84070158      0.00417164
  C     -4.23444767     -5.18080589     -0.81422737
  C     -3.49705613     -4.19208567     -1.44536283
  H     -5.87897669     -5.61573106      0.49670538
  H     -5.16251126     -1.47149469     -0.29068073
  H     -2.65617025     -4.46451847     -2.07475324
  H     -3.97117183     -6.22195976     -0.96002220
  C     -2.53682186     -2.09517764     -3.73741498
  C     -1.34104514     -1.76770169     -4.38058354
  C     -1.13387202     -2.10431196     -5.70910236
  C     -2.11603800     -2.79077673     -6.41062544
  C     -3.29985690     -3.14241298     -5.77578309
  C     -3.51259270     -2.79760007     -4.45010215
  H     -4.43865324     -3.08253366     -3.96411490
  H     -1.95692340     -3.05505957     -7.44934717
  H     -4.06486752     -3.68730867     -6.31651308
  H     -0.56351552     -1.24587171     -3.83216540
  H     -6.46666008     -3.23028673      0.82651329
  C     -3.85821315     -0.10841637     -2.10736873
  C     -3.46752074      1.06999507     -1.47005177
  C     -4.27354716      2.19658436     -1.49539861
  C     -5.48743003      2.16341350     -2.16788824
  C     -5.88658294      1.00002130     -2.81464640
  C     -5.08086762     -0.12791931     -2.78539343
  H     -6.11651343      3.04548014     -2.19408988
  H     -6.83180940      0.97042165     -3.34390008
  H     -5.40415788     -1.02996377     -3.29187877
  H     -0.20484676     -1.82858061     -6.19519744
  H     -3.95115384      3.09977912     -0.99033118
  H     -2.51683754      1.10582621     -0.95090830
  P      2.17221881     -1.82034668      3.31950430
  C      2.00469718     -0.56774428      4.62695946
  C      2.20048113     -0.86339793      5.97970621
  C      2.06704021      0.12743139      6.93987647
  C      1.73566732      1.42377652      6.56783781
  C      1.52370982      1.72631985      5.22894176
  C      1.65329959      0.73477940      4.26873713
  H      1.63956659      2.19709697      7.32079341
  H      2.44872848     -1.87513343      6.27984577
  H      1.47921793      0.97119628      3.22462271
  H      1.25621296      2.73354791      4.93067141
  C      3.95055858     -2.18378705      3.19324897
  C      4.37728799     -2.92470250      2.08650862
  C      5.71181550     -3.26872817      1.93922892
  C      6.64095376     -2.86721844      2.88958100
  C      6.22930613     -2.12188855      3.98530158
  C      4.89413178     -1.77919744      4.13801543
  H      4.58648939     -1.19392501      4.99670287
  H      7.68461220     -3.13488472      2.77493958
  H      6.95109107     -1.80558856      4.72930526
  H      3.65122879     -3.23882222      1.34332366
  H      2.22331442     -0.11378765      7.98482430
  C      1.47209529     -3.31083347      4.09273460
  C      0.16113217     -3.23988334      4.57624317
  C     -0.45313227     -4.36013118      5.11092840
  C      0.22284383     -5.57335004      5.15169299
  C      1.51891931     -5.65703384      4.66433714
  C      2.14214042     -4.53387445      4.13982545
  H     -0.26196320     -6.45029283      5.56407228
  H      2.05287974     -6.59973219      4.69624740
  H      3.15851915     -4.60866819      3.77089480
  H      6.02640479     -3.85512362      1.08359744
  H     -1.46263380     -4.28707818      5.49835904
  H     -0.37551154     -2.29663988      4.53721337
  P      1.66443046     -4.65761450     -0.96409094
  C      1.46703111     -5.40926845     -2.60767539
  C      1.95770740     -6.67188010     -2.95165835
  C      1.74818143     -7.18267151     -4.22377838
  C      1.04374274     -6.44690781     -5.16682692
  C      0.54924250     -5.19249919     -4.83546671
  C      0.76242878     -4.67743153     -3.56766616
  H      0.88204714     -6.84922693     -6.15996624
  H      2.50959965     -7.25496747     -2.22342900
  H      0.37858404     -3.69425536     -3.31363547
  H     -0.00121898     -4.61098791     -5.56665340
  C      0.22734109     -5.31391343     -0.04338121
  C     -0.25167333     -4.60694592      1.06011290
  C     -1.33522401     -5.06624076      1.78982970
  C     -1.95494145     -6.25471110      1.43067487
  C     -1.48950124     -6.97158933      0.33645672
  C     -0.41069980     -6.50477411     -0.39869802
  H     -0.06044884     -7.07237865     -1.25301418
  H     -2.79993253     -6.62133468      2.00155215
  H     -1.96775498     -7.90200485      0.05367136
  H      0.23679365     -3.68412952      1.35493356
  H      2.13656020     -8.16197628     -4.47816157
  C      3.07146353     -5.53948687     -0.21785007
  C      4.28300722     -5.59508659     -0.91600023
  C      5.39998175     -6.18195666     -0.34232441
  C      5.32786436     -6.71174027      0.94020575
  C      4.13367853     -6.65290276      1.64501208
  C      3.01342354     -6.06785662      1.07396173
  H      6.20110702     -7.17138209      1.38754706
  H      4.07101435     -7.06774498      2.64454905
  H      2.08499963     -6.02916801      1.63272319
  H     -1.69201616     -4.49778874      2.64142015
  H      6.32849151     -6.22891670     -0.89931779
  H      4.34277427     -5.19009870     -1.92065310
  P      1.09045832      1.93420887     -3.77200998
  C      1.60587423      1.21910214     -5.36804245
  C      1.61691904      1.97152251     -6.54706240
  C      1.97665906      1.38726963     -7.75055951
  C      2.32593729      0.04383895     -7.79998918
  C      2.31408899     -0.71541033     -6.63841694
  C      1.95460100     -0.13023549     -5.43331170
  H      2.60470231     -0.41054823     -8.74333669
  H      1.33836102      3.01921325     -6.52129026
  H      1.94448771     -0.72644719     -4.52807002
  H      2.58633750     -1.76428150     -6.66729516
  C      2.12733650      3.42259133     -3.60097218
  C      1.70392703      4.45174376     -2.75233345
  C      2.48748842      5.57692710     -2.55290090
  C      3.71293181      5.69094349     -3.19545561
  C      4.15115800      4.67288753     -4.03064705
  C      3.36755099      3.54619232     -4.23119059
  H      3.71198499      2.76849442     -4.90311725
  H      4.32409819      6.57304348     -3.04665907
  H      5.10808939      4.75619659     -4.53284656
  H      0.73315538      4.38464813     -2.27218977
  H      1.98142150      1.98314304     -8.65575397
  C     -0.53529831      2.62464851     -4.24344547
  C     -1.65190122      1.79260974     -4.14895691
  C     -2.88568319      2.20379016     -4.62715634
  C     -3.02785319      3.46386476     -5.19037716
  C     -1.93053948      4.31080413     -5.26797279
  C     -0.69220166      3.89553436     -4.80320322
  H     -3.99080053      3.78331651     -5.57092743
  H     -2.03277469      5.29578301     -5.70841422
  H      0.15660909      4.56404675     -4.88484448
  H      2.13490673      6.36888188     -1.90174224
  H     -3.73723829      1.53621153     -4.56645840
  H     -1.54802405      0.80899522     -3.70449109
  P      4.33827539      1.89754633     -0.32107031
  C      5.47130462      3.14935051     -0.99834144
  C      6.56092092      2.85675873     -1.82064834
  C      7.40621553      3.87072979     -2.24601987
  C      7.18698843      5.18098404     -1.84378634
  C      6.11053283      5.48072910     -1.01870911
  C      5.25330632      4.47335172     -0.60628440
  H      7.85500804      5.96855518     -2.17173180
  H      6.75233531      1.83541947     -2.12871089
  H      4.40434780      4.71019515      0.02722508
  H      5.93688908      6.50125101     -0.69752711
  C      4.62807248      0.39042639     -1.29313673
  C      4.76648155     -0.85745058     -0.68339506
  C      4.85631553     -2.01080676     -1.45133189
  C      4.80798417     -1.93728841     -2.83777925
  C      4.65832483     -0.70250285     -3.45457161
  C      4.55505709      0.44856784     -2.68885962
  H      4.42677224      1.40819252     -3.17607355
  H      4.88598503     -2.83949183     -3.43266055
  H      4.62048232     -0.63340133     -4.53546998
  H      4.80864229     -0.93107721      0.39721805
  H      8.24584963      3.63255554     -2.88863860
  C      5.10315945      1.55899800      1.29459951
  C      4.38850224      1.84490074      2.45755942
  C      4.96972689      1.67693781      3.70506960
  C      6.27638559      1.22087609      3.80387325
  C      6.99658168      0.92590301      2.65270612
  C      6.41852066      1.09638687      1.40567366
  H      6.73606483      1.09796595      4.77746271
  H      8.01703004      0.56860907      2.72771890
  H      6.99105647      0.87925740      0.51063070
  H      4.98248107     -2.96979219     -0.96364955
  H      4.40224891      1.90868288      4.59910706
  H      3.37065867      2.21090577      2.37848819
  P     -1.60260587      5.69762453      0.29924039
  C     -3.10780394      5.76592429     -0.72369038
  C     -4.38978303      5.65068274     -0.18159691
  C     -5.50645676      5.67729179     -1.00449032
  C     -5.35858228      5.81590111     -2.37764623
  C     -4.08710289      5.91496010     -2.92804453
  C     -2.96910270      5.87882592     -2.11125996
  H     -6.23166888      5.85021675     -3.01849669
  H     -4.51654740      5.55159417      0.89027542
  H     -1.97825976      5.94847899     -2.54853053
  H     -3.96714810      6.02341354     -3.99956296
  C     -0.74886561      7.26098031     -0.05482837
  C      0.62414405      7.31520004      0.20407384
  C      1.34525990      8.47195355     -0.04440002
  C      0.70424255      9.58983124     -0.56300293
  C     -0.65779798      9.54657044     -0.82713568
  C     -1.38312684      8.39179759     -0.57499187
  H     -2.44551549      8.36638630     -0.78826803
  H      1.26756490     10.49366512     -0.76282975
  H     -1.16052783     10.41713685     -1.23219693
  H      1.12441752      6.43966938      0.60629457
  H     -6.49554373      5.59789573     -0.56838900
  C     -2.22358814      5.87140415      2.00033392
  C     -2.42137055      4.70582589      2.74633810
  C     -2.88907092      4.77071571      4.04879869
  C     -3.16024990      6.00385342      4.62657887
  C     -2.96296198      7.16865042      3.89710184
  C     -2.49777680      7.10610590      2.59251469
  H     -3.52167383      6.05659806      5.64684587
  H     -3.17113698      8.13251244      4.34671612
  H     -2.34313279      8.02044471      2.03077177
  H      2.40849476      8.50051862      0.16491894
  H     -3.03538494      3.85802749      4.61583980
  H     -2.20377696      3.74162258      2.29772078

