#B3LYP/6-31+G(d) OPT FREQ

246, Energy =   -372.43277282 au

0 1
 Au      2.14766868      1.22882729      1.53030635
 Au      0.54631547      0.99528715     -3.25200660
 Au      1.68349926     -1.38457471      0.45179836
 Au     -0.04736298      3.08159617     -1.82294312
 Au     -0.21922485     -0.07165362      1.90746765
 Au     -1.04985697     -1.78197670     -0.25773027
 Au     -3.80545400     -1.70098394     -0.02476820
 Au      0.36785222      0.74511217     -0.60554123
  P      1.21747612     -0.48372301     -4.99328710
  C      0.11746755     -0.67348672     -6.42695680
  C     -0.01856697      0.40130594     -7.31254542
  C     -0.91874503      0.33648046     -8.36353566
  C     -1.70747254     -0.79374884     -8.53634320
  C     -1.59175403     -1.85917821     -7.65448359
  C     -0.68879027     -1.80073782     -6.60308408
  H     -2.41317560     -0.84254272     -9.35716830
  H      0.59170682      1.28802495     -7.17688386
  H     -0.60296634     -2.63897939     -5.92023224
  H     -2.20661511     -2.74240943     -7.78446746
  C      1.47625251     -2.19062766     -4.40100758
  C      0.81010993     -2.59658082     -3.24397998
  C      1.01444470     -3.85820298     -2.70898532
  C      1.88087503     -4.74305778     -3.33537914
  C      2.53926051     -4.35836441     -4.49583754
  C      2.34381796     -3.09131598     -5.02411975
  H      2.87268624     -2.79827423     -5.92399633
  H      2.04538931     -5.72909137     -2.91655724
  H      3.21598506     -5.04676004     -4.98864765
  H      0.12852921     -1.91075829     -2.75387245
  H     -1.00703408      1.17174754     -9.04852554
  C      2.83497876     -0.03882829     -5.69226890
  C      3.73187914      0.63171114     -4.85528519
  C      4.99458268      0.98114057     -5.30695747
  C      5.37695241      0.66947718     -6.60515060
  C      4.49175680      0.01138162     -7.44797252
  C      3.22876932     -0.34289181     -6.99765524
  H      6.36246536      0.94549803     -6.96134876
  H      4.78518792     -0.22733198     -8.46362345
  H      2.54193781     -0.84994638     -7.66568903
  H      0.49836206     -4.14607889     -1.80009425
  H      5.67785364      1.50292291     -4.64629709
  H      3.42939558      0.88463086     -3.84383786
  P     -3.93159986     -4.04830935      0.28233482
  C     -5.57967747     -4.79432625      0.09416127
  C     -5.78015147     -6.03425239     -0.51807867
  C     -7.05977224     -6.55318722     -0.64111247
  C     -8.15171706     -5.84593541     -0.15664789
  C     -7.96331871     -4.61234298      0.45244727
  C     -6.68658482     -4.08810440      0.57330022
  H     -9.15034643     -6.25445037     -0.25647680
  H     -4.93322678     -6.59243626     -0.90059707
  H     -6.53984433     -3.12163280      1.04421582
  H     -8.81238656     -4.05479536      0.83059375
  C     -3.28328490     -4.74123024      1.83568262
  C     -2.01494412     -4.34277416      2.26784064
  C     -1.47881808     -4.83982582      3.44434275
  C     -2.20603152     -5.73822967      4.21513810
  C     -3.47180236     -6.13113649      3.80371717
  C     -4.00952432     -5.63641967      2.62450129
  H     -4.99872160     -5.95123065      2.31345430
  H     -1.78664202     -6.12659414      5.13565140
  H     -4.04559020     -6.82927183      4.40190305
  H     -1.44694039     -3.63451322      1.67361506
  H     -7.20368786     -7.51534300     -1.11873796
  C     -2.92236529     -4.84656818     -1.00291150
  C     -2.86507060     -4.24115326     -2.26167994
  C     -2.11665557     -4.80079713     -3.28373106
  C     -1.40629653     -5.97353877     -3.06054207
  C     -1.44864936     -6.58005165     -1.81276227
  C     -2.20268811     -6.02411399     -0.78996451
  H     -0.81593118     -6.41009542     -3.85748293
  H     -0.89113983     -7.49200481     -1.63263568
  H     -2.22972318     -6.50550946      0.18080500
  H     -0.49418909     -4.51946711      3.76530307
  H     -2.08088038     -4.31789724     -4.25369026
  H     -3.41724169     -3.32377702     -2.43719409
  P      4.17280726      2.50377541      1.71382085
  C      3.99601601      4.31044106      1.83085370
  C      4.04249771      4.97997624      3.05565810
  C      3.78543355      6.34131733      3.12199362
  C      3.47494721      7.05095094      1.97040600
  C      3.42052080      6.39393864      0.74813616
  C      3.66868932      5.03278032      0.67775854
  H      3.27473346      8.11457033      2.02402628
  H      4.28657411      4.43430036      3.96016694
  H      3.61494420      4.52388495     -0.27929355
  H      3.18047917      6.94296784     -0.15506078
  C      5.30688195      2.26981107      0.31156126
  C      5.15123192      1.13439804     -0.48680779
  C      5.99796542      0.90154649     -1.55855844
  C      7.01028144      1.80440108     -1.85326757
  C      7.16785763      2.94362374     -1.07535592
  C      6.32343810      3.17770860     -0.00118331
  H      6.44740553      4.07508822      0.59419403
  H      7.67385040      1.62128450     -2.69037302
  H      7.95315466      3.65426435     -1.30539487
  H      4.35398867      0.43131066     -0.26741297
  H      3.82881611      6.84888480      4.07869796
  C      5.12375524      2.03532754      3.19147368
  C      4.40286596      1.58852098      4.30273222
  C      5.05597608      1.20971290      5.46438689
  C      6.44222670      1.26219611      5.52757525
  C      7.16967034      1.69289505      4.42547810
  C      6.51741876      2.07828309      3.26392516
  H      6.95588860      0.96327055      6.43364896
  H      8.25184313      1.73093758      4.47036222
  H      7.09493194      2.41055242      2.40889615
  H      5.86618105      0.01341071     -2.16581837
  H      4.48299597      0.86803875      6.31876583
  H      3.31986375      1.53554373      4.24833256
  P     -4.43122084      0.50019846     -0.62436548
  C     -6.17793563      0.74741368     -1.06670970
  C     -6.65737989      1.98950740     -1.49706739
  C     -7.99224142      2.14515231     -1.83192337
  C     -8.86498589      1.06745454     -1.74688387
  C     -8.39856007     -0.16962801     -1.32579042
  C     -7.06327771     -0.32844485     -0.98845420
  H     -9.90839419      1.19319844     -2.01064573
  H     -5.98204063      2.83504468     -1.57008752
  H     -6.69895451     -1.29619776     -0.65950113
  H     -9.07427958     -1.01444336     -1.25937370
  C     -3.55190050      1.07350688     -2.11212616
  C     -3.16213776      0.11838097     -3.05330712
  C     -2.55655447      0.49823841     -4.24083338
  C     -2.33010120      1.84334512     -4.50659612
  C     -2.70526130      2.80325660     -3.57318509
  C     -3.30973292      2.42199643     -2.38333180
  H     -3.59358480      3.17945727     -1.66227125
  H     -1.86848986      2.14076186     -5.44054485
  H     -2.54270676      3.85518156     -3.77665666
  H     -3.34047727     -0.93267511     -2.85307060
  H     -8.35298510      3.11240319     -2.16202804
  C     -4.09056555      1.76845706      0.63160813
  C     -5.09709773      2.33236966      1.41971969
  C     -4.77778672      3.18847069      2.46384257
  C     -3.45118383      3.47241913      2.75617608
  C     -2.44101823      2.90736025      1.98784178
  C     -2.75889367      2.07296543      0.93007533
  H     -3.20103297      4.12701725      3.58277216
  H     -1.40190832      3.11210189      2.21407645
  H     -1.96616416      1.65119614      0.32376484
  H     -2.26971918     -0.25575822     -4.96430562
  H     -5.57088123      3.62605139      3.05886743
  H     -6.13618438      2.10215291      1.21473515
  P      3.32564818     -3.06734250      0.45603928
  C      4.53668597     -2.95982768     -0.89156865
  C      5.80508483     -3.54264993     -0.81186452
  C      6.68262757     -3.45684797     -1.88138366
  C      6.30826106     -2.79166180     -3.04143446
  C      5.05554248     -2.19843250     -3.12522202
  C      4.17781764     -2.27721926     -2.05477566
  H      6.99402139     -2.72987012     -3.87821564
  H      6.10566586     -4.05782154      0.09344180
  H      3.20221400     -1.80676340     -2.11723944
  H      4.75885148     -1.67500210     -4.02669976
  C      2.65767720     -4.75671489      0.37491036
  C      1.46188134     -5.00737839      1.05362375
  C      0.88330787     -6.26554204      1.02779149
  C      1.48395516     -7.28981539      0.30761044
  C      2.66557327     -7.04975436     -0.38048693
  C      3.25225894     -5.79301229     -0.34706720
  H      4.17636748     -5.61789928     -0.88577241
  H      1.03144746     -8.27419312      0.28324653
  H      3.13721938     -7.84610766     -0.94440132
  H      0.98632990     -4.20282822      1.60491212
  H      7.66300219     -3.91310913     -1.80935460
  C      4.34211095     -3.03598308      1.96304298
  C      5.09441278     -1.88313887      2.21151843
  C      5.84656133     -1.76860966      3.36802464
  C      5.84436453     -2.79568271      4.30339395
  C      5.09290502     -3.93914122      4.07219968
  C      4.34454181     -4.06149868      2.90950997
  H      6.42921397     -2.70345493      5.21098983
  H      5.09154815     -4.74495380      4.79706277
  H      3.76681261     -4.96167161      2.73390864
  H     -0.03945020     -6.44452987      1.56810033
  H      6.43480264     -0.87493741      3.54188219
  H      5.09148809     -1.07445078      1.48743308
  P     -1.32466025     -0.46456715      3.97172753
  C     -0.28073458     -1.50592229      5.03339833
  C     -0.44086776     -1.56393968      6.42107992
  C      0.39175335     -2.36265994      7.18950050
  C      1.39610092     -3.10951568      6.58787146
  C      1.56882901     -3.05491759      5.21154237
  C      0.73609852     -2.25821806      4.44171687
  H      2.04805913     -3.72940733      7.19205642
  H     -1.21455349     -0.97321490      6.89866140
  H      0.87916431     -2.20889985      3.36727697
  H      2.35779885     -3.62632463      4.73560128
  C     -2.96056879     -1.26688616      3.96737846
  C     -3.93161702     -0.72945563      3.11630891
  C     -5.19816104     -1.28888850      3.03836911
  C     -5.50670926     -2.41085013      3.79828361
  C     -4.54641838     -2.96012003      4.63525114
  C     -3.28225863     -2.39385979      4.72300257
  H     -2.54419119     -2.83357148      5.38361921
  H     -6.49458215     -2.85233006      3.73992743
  H     -4.78142852     -3.83660357      5.22794119
  H     -3.69282335      0.14871473      2.52933925
  H      0.25829176     -2.39889859      8.26442411
  C     -1.55428554      1.04360314      4.96338320
  C     -0.41469173      1.81656493      5.21158102
  C     -0.50770173      3.00466821      5.91599068
  C     -1.74431412      3.44984499      6.36718506
  C     -2.88243468      2.69649829      6.11659336
  C     -2.79087545      1.49938120      5.42027427
  H     -1.81885802      4.38227963      6.91412497
  H     -3.84898752      3.03813309      6.46850592
  H     -3.68677306      0.91882974      5.23322582
  H     -5.94594685     -0.83917293      2.39519402
  H      0.38606351      3.58545571      6.11347799
  H      0.55128701      1.47614426      4.85132873
  P     -0.56903284      5.27400763     -1.05474912
  C     -2.26927217      5.82293212     -1.38265035
  C     -2.58910336      6.46765123     -2.58103229
  C     -3.90902728      6.75216152     -2.89673542
  C     -4.93018618      6.38444027     -2.03095739
  C     -4.62643019      5.73264994     -0.84293910
  C     -3.30739441      5.44869318     -0.52299245
  H     -5.96110510      6.60508810     -2.28153865
  H     -1.79826620      6.75548573     -3.26489997
  H     -3.07821895      4.93997794      0.40654667
  H     -5.41774500      5.44205331     -0.16090727
  C      0.49698968      6.58642485     -1.72314417
  C      1.64708570      6.21058879     -2.42017668
  C      2.52248378      7.16893751     -2.90797049
  C      2.25627269      8.51638427     -2.70644161
  C      1.11301258      8.90187168     -2.01794361
  C      0.23860477      7.94613118     -1.52639864
  H     -0.65075316      8.25538614     -0.98870934
  H      2.93866107      9.26691129     -3.08756983
  H      0.90220589      9.95347597     -1.86183560
  H      1.85222453      5.15676913     -2.57888859
  H     -4.14085732      7.26150159     -3.82492622
  C     -0.36694280      5.47821812      0.74735128
  C     -1.00205550      6.48277295      1.48175044
  C     -0.80564503      6.58413878      2.85053992
  C      0.02666654      5.68797414      3.50766642
  C      0.66910022      4.68987071      2.78846370
  C      0.47531932      4.59061781      1.41929199
  H      0.17473670      5.76743493      4.57824222
  H      1.32287469      3.98610412      3.29145186
  H      0.98185202      3.81078560      0.86093644
  H      3.41132076      6.86265479     -3.44735365
  H     -1.30685734      7.36713511      3.40767076
  H     -1.65796170      7.18665428      0.98250155

