#B3LYP/6-31+G(d) OPT FREQ

246, Energy =   -372.46685710 au

0 1
 Au      1.77080725      0.34599975     -0.56352650
 Au      0.77189206     -0.38281241      2.24253223
 Au     -0.91747525      0.44581562     -2.07376101
 Au      2.56543213     -1.84088131     -1.83972237
 Au     -1.09020217      0.60796415      0.60620475
 Au     -1.28480047      1.06177339      3.18171388
 Au     -3.00747931      1.57981619     -0.96106072
 Au      0.29856019     -1.89282950     -0.43279643
  P     -1.66150225      2.19062121      5.23251927
  C     -1.77628691      3.99739409      5.05738391
  C     -2.15507800      4.84237133      6.10447548
  C     -2.21616698      6.21355213      5.90927036
  C     -1.90300150      6.75972514      4.67118974
  C     -1.53529351      5.92924594      3.62103976
  C     -1.47810246      4.55822276      3.81332535
  H     -1.95120166      7.83216195      4.52346584
  H     -2.40932504      4.42276083      7.07140385
  H     -1.20919060      3.90651627      2.98858346
  H     -1.29941612      6.34768500      2.64913043
  C     -0.15985909      1.90979897      6.22041100
  C      0.27330243      0.58456049      6.33463849
  C      1.43889608      0.27603325      7.01467656
  C      2.19696000      1.29143568      7.58396171
  C      1.78532515      2.61106746      7.46597114
  C      0.61480051      2.92187514      6.78831638
  H      0.30042404      3.95611291      6.70743924
  H      3.11184914      1.05289195      8.11332395
  H      2.37812859      3.40581765      7.90391223
  H     -0.31544972     -0.20771962      5.88312074
  H     -2.51118838      6.85962703      6.72789325
  C     -3.02681049      1.76109937      6.35720695
  C     -4.28445110      1.52041405      5.79523380
  C     -5.36574326      1.19724748      6.59931210
  C     -5.20255386      1.10178219      7.97530870
  C     -3.95639891      1.32999012      8.54218383
  C     -2.87249943      1.65690509      7.74100049
  H     -6.04681752      0.84661496      8.60483407
  H     -3.82546089      1.25374256      9.61537261
  H     -1.90166974      1.82933250      8.19134079
  H      1.76049589     -0.75640722      7.09418070
  H     -6.33588403      1.01681730      6.15063237
  H     -4.41267662      1.59068341      4.71995053
  P     -1.60684654     -3.20997648      0.14026429
  C     -2.36642963     -2.56852576      1.66335135
  C     -3.42909460     -1.66391045      1.59820517
  C     -3.92248858     -1.06758638      2.74902666
  C     -3.36215132     -1.36850877      3.98409965
  C     -2.30053185     -2.26154443      4.06007619
  C     -1.79581398     -2.84645478      2.90869792
  H     -3.75610600     -0.91589328      4.88604901
  H     -3.87993965     -1.42820116      0.64121744
  H     -0.95634771     -3.52959558      2.97536277
  H     -1.86648615     -2.50244493      5.02335411
  C     -1.25897893     -4.96575701      0.44905821
  C     -0.32972608     -5.58677867     -0.39059194
  C     -0.06748033     -6.94193161     -0.27302874
  C     -0.71517914     -7.69269971      0.69915452
  C     -1.62942405     -7.08383640      1.54754457
  C     -1.90789523     -5.73105197      1.42158466
  H     -2.63165056     -5.26921393      2.08317373
  H     -0.50759940     -8.75191688      0.79464674
  H     -2.13697639     -7.66592313      2.30793913
  H      0.18652792     -4.99980960     -1.14399762
  H     -4.75100243     -0.37168035      2.68120153
  C     -3.02869577     -3.27674417     -1.00541845
  C     -3.16271880     -2.31808623     -2.00837841
  C     -4.24878980     -2.33075898     -2.86917009
  C     -5.22027044     -3.31327804     -2.74250596
  C     -5.09754370     -4.27872717     -1.75097096
  C     -4.01253024     -4.26332323     -0.88906324
  H     -6.06849397     -3.33020654     -3.41640521
  H     -5.85075449     -5.05130724     -1.64972358
  H     -3.92876040     -5.02431639     -0.12162227
  H      0.64323670     -7.41247046     -0.94270310
  H     -4.32970291     -1.57644805     -3.64363088
  H     -2.40419436     -1.55223959     -2.11811650
  P      2.78261149     -1.31745224      3.13914857
  C      3.67759808     -0.15631043      4.22344414
  C      4.42831055     -0.56313693      5.32830108
  C      5.12163571      0.36793258      6.08646054
  C      5.07668709      1.71555827      5.75456015
  C      4.32617372      2.13162358      4.66397619
  C      3.62923983      1.20283742      3.90783025
  H      5.62219295      2.44017264      6.34737964
  H      4.47315980     -1.61109355      5.60070485
  H      3.03407094      1.53044796      3.06271999
  H      4.27957025      3.18246231      4.40201988
  C      4.07978038     -1.77108223      1.93967667
  C      4.21448036     -3.07632575      1.46022948
  C      5.23038810     -3.39561186      0.57070282
  C      6.09563614     -2.41179905      0.11390614
  C      5.92533172     -1.09777576      0.52786519
  C      4.92861267     -0.78049766      1.43638769
  H      4.82180754      0.24424236      1.77482186
  H      6.90080851     -2.66948864     -0.56309715
  H      6.58287050     -0.32034588      0.15582284
  H      3.53662368     -3.85137221      1.79973480
  H      5.70290505      0.03751544      6.93940303
  C      2.54050061     -2.77919809      4.18801130
  C      1.28147499     -2.93463439      4.77234804
  C      1.01874289     -3.99274194      5.62721538
  C      2.01656202     -4.91511175      5.91149379
  C      3.27507504     -4.76870208      5.34388746
  C      3.54083549     -3.70830051      4.49062201
  H      1.81468896     -5.74543378      6.57781063
  H      4.05874446     -5.48243058      5.56996575
  H      4.52964470     -3.60369631      4.05934481
  H      5.35328738     -4.42073737      0.24096495
  H      0.03551180     -4.09635853      6.07180012
  H      0.50732259     -2.20770120      4.55290062
  P     -0.34861610     -0.12040015     -4.34384937
  C     -1.34721538      0.99549380     -5.37386457
  C     -0.79712584      2.00067272     -6.17088893
  C     -1.62050726      2.89735710     -6.83780573
  C     -2.99971770      2.80507308     -6.71637331
  C     -3.55812330      1.81386192     -5.91874054
  C     -2.73881489      0.92453713     -5.24458251
  H     -3.63991332      3.50487524     -7.24038912
  H      0.27879378      2.08095832     -6.27523895
  H     -3.17799692      0.16019878     -4.61168034
  H     -4.63473612      1.73429869     -5.82075302
  C     -0.90587664     -1.77997195     -4.85717841
  C     -0.72559168     -2.83812929     -3.96371410
  C     -1.15389404     -4.11870407     -4.27573470
  C     -1.76750355     -4.36256765     -5.49732434
  C     -1.94900938     -3.32126888     -6.39769447
  C     -1.52620591     -2.03851932     -6.08179416
  H     -1.68778144     -1.23203826     -6.78757302
  H     -2.10768142     -5.36117374     -5.74446388
  H     -2.42858405     -3.50673460     -7.35173666
  H     -0.24846799     -2.65128907     -3.00722237
  H     -1.17977465      3.67022432     -7.45677380
  C      1.32804053      0.01962594     -5.05308319
  C      2.33470897      0.63314738     -4.30670957
  C      3.60749880      0.79751073     -4.83206304
  C      3.89142550      0.35009011     -6.11403739
  C      2.89811377     -0.26318451     -6.86623783
  C      1.62750348     -0.43383683     -6.34074352
  H      4.88457759      0.48012697     -6.52743440
  H      3.11466196     -0.61269599     -7.86881211
  H      0.86164645     -0.92064086     -6.93396627
  H     -1.01415633     -4.92279244     -3.56194210
  H      4.37311737      1.28843913     -4.24262375
  H      2.11538821      0.99635819     -3.30869203
  P     -5.16276566      2.41936258     -0.48010545
  C     -5.16105596      3.69137968      0.81611767
  C     -5.42071470      5.03582334      0.54292842
  C     -5.31791035      5.99006620      1.54457179
  C     -4.95845687      5.61577981      2.83126503
  C     -4.68552017      4.28303446      3.11122356
  C     -4.76746225      3.33057597      2.10947932
  H     -4.88442217      6.35992501      3.61564279
  H     -5.71211650      5.33637154     -0.45704215
  H     -4.53154156      2.29387465      2.32949522
  H     -4.40253852      3.98651780      4.11459466
  C     -6.18148208      1.07010002      0.19212532
  C     -6.03863544     -0.18607492     -0.40530373
  C     -6.75651623     -1.27677574      0.05769119
  C     -7.62282805     -1.12982236      1.13335081
  C     -7.77419393      0.11256605      1.73337471
  C     -7.06265028      1.20812969      1.26595007
  H     -7.19098421      2.17322472      1.74228924
  H     -8.17931295     -1.98313555      1.50274982
  H     -8.45191150      0.23226496      2.57076538
  H     -5.35628529     -0.30411138     -1.24136759
  H     -5.52499860      7.02960858      1.31842864
  C     -6.16822982      3.11112717     -1.82669722
  C     -5.57766080      3.30636595     -3.07645873
  C     -6.31250366      3.83575743     -4.12630769
  C     -7.64747747      4.16696629     -3.94103411
  C     -8.24711295      3.96737631     -2.70388264
  C     -7.51503489      3.44297579     -1.65112268
  H     -8.22267331      4.57923558     -4.76168694
  H     -9.29049687      4.22205676     -2.55874577
  H     -7.98707908      3.28689904     -0.68731460
  H     -6.63476856     -2.24350930     -0.41819433
  H     -5.84141592      3.98998341     -5.09043726
  H     -4.53587402      3.03887112     -3.22286932
  P      2.04811761      2.73407641     -0.47692680
  C      0.53894727      3.51170913     -1.14522359
  C     -0.43538535      4.06192810     -0.30997684
  C     -1.63862256      4.52027326     -0.82753448
  C     -1.88865670      4.43871566     -2.19193827
  C     -0.92842861      3.89293889     -3.03440077
  C      0.26865664      3.42352885     -2.51541909
  H     -2.82387852      4.80620395     -2.59655077
  H     -0.25612796      4.13889649      0.75580789
  H      1.00667304      2.99503184     -3.18358308
  H     -1.11216729      3.82656514     -4.10049497
  C      3.37828466      3.25840852     -1.59678268
  C      4.50704965      2.43890368     -1.68399956
  C      5.57181118      2.78766134     -2.50033787
  C      5.51757896      3.95519309     -3.25080844
  C      4.39959885      4.77464753     -3.17511419
  C      3.33829862      4.43527568     -2.35002235
  H      2.47308793      5.08562961     -2.29165213
  H      6.34676532      4.22554563     -3.89379587
  H      4.35464321      5.68712216     -3.75810157
  H      4.54643562      1.52172140     -1.10507931
  H     -2.38035106      4.94856050     -0.16321755
  C      2.35059592      3.69244638      1.04853697
  C      1.63778370      3.35942035      2.20345727
  C      1.80064514      4.08370386      3.37415178
  C      2.68869744      5.15015211      3.41195837
  C      3.41441185      5.48108208      2.27562324
  C      3.24955365      4.75974288      1.10280052
  H      2.81551580      5.71891180      4.32546809
  H      4.11386506      6.30854311      2.30032504
  H      3.82162172      5.03305996      0.22393546
  H      6.44616800      2.14864001     -2.54871670
  H      1.23884114      3.80731907      4.25905095
  H      0.94807596      2.52348733      2.18413142
  P      3.89182370     -3.23476178     -3.24007308
  C      5.65457998     -2.78876519     -3.19990928
  C      6.69718173     -3.71679046     -3.23800289
  C      8.01623229     -3.29006153     -3.19676685
  C      8.31245414     -1.93582330     -3.11979571
  C      7.28326514     -1.00437613     -3.07855424
  C      5.96496684     -1.42857064     -3.11212766
  H      9.34419575     -1.60643473     -3.08711724
  H      6.47847353     -4.77685635     -3.29384461
  H      5.15981949     -0.70262916     -3.06372561
  H      7.50816488      0.05427824     -3.01375887
  C      3.51916752     -3.37598371     -5.01746156
  C      2.22991941     -3.77957425     -5.37614924
  C      1.87752167     -3.91798563     -6.70815953
  C      2.81120803     -3.65680727     -7.70322919
  C      4.09292804     -3.25044457     -7.35816022
  C      4.44622739     -3.10379749     -6.02426994
  H      5.44868802     -2.78266275     -5.76642821
  H      2.53951646     -3.77012769     -8.74601870
  H      4.82536604     -3.04803081     -8.13097651
  H      1.50363148     -3.99204494     -4.59912521
  H      8.81657195     -4.02024105     -3.22522023
  C      3.81338043     -4.96578259     -2.68863706
  C      3.33525813     -5.23281505     -1.40437153
  C      3.30004030     -6.52908621     -0.91458799
  C      3.72109022     -7.58270480     -1.71498996
  C      4.16827671     -7.33424165     -3.00593585
  C      4.21712797     -6.03673024     -3.49180013
  H      3.69449335     -8.59720468     -1.33508095
  H      4.48453311     -8.15587545     -3.63798416
  H      4.56116846     -5.85382759     -4.50349439
  H      0.87379142     -4.23372100     -6.96963650
  H      2.94528251     -6.71441095      0.09290521
  H      2.98723555     -4.41151656     -0.78718029

