#B3LYP/6-31+G(d) OPT FREQ

246, Energy =   -372.47360435 au

0 1
 Au     -0.96203399      0.68762303      0.80681356
 Au      0.15640284      0.51299019     -2.12096158
 Au      1.29741764      2.02750935      0.39500143
 Au     -0.28252235      2.67221328      2.41363249
 Au     -1.74946124     -1.38970229     -0.63989245
 Au     -3.14574005     -0.62235526      1.48715466
 Au      2.23865910     -0.95819783     -2.80535051
 Au      1.31422471     -1.03392592     -0.30308403
  P      1.95298983     -1.96383132      1.78484052
  C      2.02073344     -0.60292387      2.98888389
  C      1.02313015     -0.38652641      3.93948204
  C      1.04674384      0.75059541      4.73528652
  C      2.06014119      1.68957949      4.58893189
  C      3.05519382      1.48730126      3.63955069
  C      3.03059987      0.35461589      2.84306288
  H      2.07767401      2.57194621      5.21806607
  H      0.22565334     -1.10977998      4.06660007
  H      3.80696604      0.20275993      2.10174488
  H      3.85231439      2.21165463      3.51571268
  C      3.65199790     -2.60353831      1.74288739
  C      4.12376477     -3.13780660      0.54192774
  C      5.42171783     -3.61299147      0.43991432
  C      6.26954817     -3.55412977      1.53798155
  C      5.81108695     -3.02750655      2.73852453
  C      4.51149240     -2.55722911      2.84498901
  H      4.16396728     -2.14300198      3.78423446
  H      7.28785000     -3.91603773      1.45666762
  H      6.47060281     -2.98029547      3.59725475
  H      3.46655795     -3.17341470     -0.32027160
  H      0.27249986      0.89967420      5.47899182
  C      0.96205311     -3.25372854      2.60673344
  C     -0.43066390     -3.13464377      2.58705253
  C     -1.23393672     -4.08439954      3.19621674
  C     -0.65681037     -5.17444997      3.83306841
  C      0.72466893     -5.31246078      3.84636345
  C      1.53112378     -4.36190763      3.23696605
  H     -1.28151935     -5.91814893      4.31349190
  H      1.18022118     -6.16538283      4.33592578
  H      2.60805011     -4.48425411      3.25428726
  H      5.77262162     -4.02145923     -0.50074968
  H     -2.31241881     -3.97255831      3.17132250
  H     -0.88916697     -2.29055958      2.08444695
  P     -4.73298389     -1.11969902      3.16294869
  C     -5.57877272      0.28428643      3.95264962
  C     -6.28277783      0.15897162      5.15495416
  C     -6.90189912      1.26313410      5.72027764
  C     -6.82798589      2.50243113      5.09701564
  C     -6.12455093      2.63937278      3.90839267
  C     -5.49778406      1.53785759      3.34470501
  H     -7.31476357      3.36333448      5.54033946
  H     -6.33980745     -0.80487763      5.64799572
  H     -4.93556837      1.64452682      2.42397397
  H     -6.05869090      3.60576395      3.42164053
  C     -3.88852020     -1.92375426      4.56107994
  C     -2.69042882     -1.34391960      4.99002463
  C     -1.97737945     -1.89250734      6.04306028
  C     -2.44463783     -3.03934714      6.67318569
  C     -3.62781323     -3.62808857      6.24975757
  C     -4.34993492     -3.07431102      5.20188743
  H     -5.27485523     -3.53871902      4.87928594
  H     -1.88446715     -3.47390118      7.49296141
  H     -3.99386439     -4.52267618      6.74054370
  H     -2.32099589     -0.45314317      4.49129164
  H     -7.44512917      1.15679228      6.65200736
  C     -6.03855473     -2.27542265      2.65638454
  C     -7.40254031     -2.00873594      2.78210405
  C     -8.34054102     -2.90237013      2.28638065
  C     -7.92965735     -4.06879645      1.65605858
  C     -6.57397297     -4.34133516      1.51783813
  C     -5.63484576     -3.44847547      2.00787203
  H     -8.66421630     -4.76511179      1.26868562
  H     -6.24940166     -5.25144336      1.02645709
  H     -4.57580205     -3.65676196      1.89109005
  H     -1.05655450     -1.42603138      6.37415113
  H     -9.39688024     -2.68638205      2.39390140
  H     -7.73308028     -1.09811677      3.26914148
  P     -2.01824352     -3.17772824     -2.18902222
  C     -1.06443969     -3.31800414     -3.73707614
  C     -0.62935686     -4.54168013     -4.24938828
  C      0.10113458     -4.59077221     -5.42711134
  C      0.41644756     -3.42209863     -6.10559088
  C     -0.01621046     -2.20009460     -5.60830428
  C     -0.74901706     -2.14802739     -4.43317226
  H      0.99624886     -3.46109309     -7.02028195
  H     -0.86500788     -5.46147777     -3.72647898
  H     -1.09045135     -1.18994585     -4.05530439
  H      0.20961680     -1.28484019     -6.14185671
  C     -3.75334544     -3.13667279     -2.72395833
  C     -4.74208846     -3.36669060     -1.76026916
  C     -6.08205990     -3.20110295     -2.07029717
  C     -6.45505363     -2.78722404     -3.34400207
  C     -5.48215271     -2.54563169     -4.30358392
  C     -4.13938762     -2.71563584     -3.99761785
  H     -3.38838236     -2.52253003     -4.75561526
  H     -7.50263749     -2.64983125     -3.58649855
  H     -5.76813305     -2.21976003     -5.29688652
  H     -4.45437849     -3.67555307     -0.76040880
  H      0.43083986     -5.54816947     -5.81391672
  C     -1.80238355     -4.79113612     -1.38493512
  C     -0.79143146     -4.90902842     -0.42721531
  C     -0.57098390     -6.11348671      0.22180020
  C     -1.36351300     -7.21544893     -0.07186300
  C     -2.37238838     -7.10955641     -1.02026964
  C     -2.59199361     -5.90682526     -1.67471039
  H     -1.19636949     -8.15710641      0.43835880
  H     -2.99225548     -7.96802882     -1.25200627
  H     -3.38289797     -5.83006493     -2.41247145
  H     -6.83620176     -3.39000854     -1.31426532
  H      0.21539109     -6.19053706      0.96448000
  H     -0.17854460     -4.04491677     -0.19026115
  P     -1.56456596      1.96518673     -2.92374928
  C     -1.22370172      3.75281748     -2.87396485
  C     -1.58137993      4.62080899     -3.90764868
  C     -1.25419985      5.96652331     -3.83735171
  C     -0.56654324      6.46584329     -2.73965400
  C     -0.20686130      5.61346776     -1.70439254
  C     -0.53041316      4.26876144     -1.77489484
  H     -0.30716773      7.51688310     -2.69267417
  H     -2.11560949      4.24156081     -4.77111286
  H     -0.23899143      3.60443549     -0.96797052
  H      0.33529677      5.99188966     -0.84485290
  C     -3.10099716      1.75781192     -1.97098878
  C     -3.83700579      0.57805167     -2.13067156
  C     -4.95240216      0.32941610     -1.34622885
  C     -5.34740155      1.25209908     -0.38476981
  C     -4.61816081      2.42143639     -0.21199458
  C     -3.49861508      2.66950245     -0.99235525
  H     -2.93637756      3.58462067     -0.84516127
  H     -6.22682401      1.06281409      0.21892127
  H     -4.92323962      3.15083045      0.52982679
  H     -3.53881209     -0.14419922     -2.88280513
  H     -1.53585006      6.62834444     -4.64803429
  C     -2.05435560      1.62963205     -4.64099606
  C     -1.04665285      1.26864413     -5.54053281
  C     -1.34740904      0.98130783     -6.86232264
  C     -2.66441638      1.03257280     -7.30062850
  C     -3.67314744      1.39060511     -6.41734785
  C     -3.37310081      1.69559357     -5.09815847
  H     -2.90299739      0.79452922     -8.33060466
  H     -4.70138314      1.43653636     -6.75715511
  H     -4.16752320      1.98318928     -4.41922306
  H     -5.51602806     -0.58575609     -1.48601618
  H     -0.55377743      0.71338737     -7.55042562
  H     -0.01928669      1.21484543     -5.19484970
  P     -1.14884493      3.95627402      4.20301577
  C     -2.65800075      4.84215878      3.70607161
  C     -3.62872313      5.27417110      4.61339159
  C     -4.74979841      5.95836450      4.16775335
  C     -4.91872310      6.21870434      2.81383770
  C     -3.96274632      5.78909488      1.90218353
  C     -2.84252879      5.10476836      2.34616304
  H     -5.79482337      6.75622459      2.47021251
  H     -3.51006810      5.06763721      5.67116614
  H     -2.09817038      4.76564191      1.63237019
  H     -4.08865988      5.98972359      0.84401705
  C     -0.03130993      5.25417096      4.81403358
  C      1.24720426      5.33879629      4.25932596
  C      2.14072138      6.30943643      4.68425831
  C      1.76570853      7.21069363      5.67117459
  C      0.49599206      7.13753216      6.22949477
  C     -0.39889882      6.16824261      5.80547683
  H     -1.38828037      6.11937136      6.24612146
  H      2.46252486      7.97005230      6.00606206
  H      0.20136181      7.83976469      7.00070394
  H      1.53855991      4.63221991      3.48908954
  H     -5.49403137      6.29198687      4.88185880
  C     -1.64872651      3.03146773      5.68498841
  C     -2.79858953      2.23700028      5.62647941
  C     -3.16156479      1.44105968      6.70080681
  C     -2.37104607      1.40925941      7.84236711
  C     -1.21807265      2.17929414      7.90492260
  C     -0.85543620      2.98276122      6.83389356
  H     -2.65293103      0.78439924      8.68145571
  H     -0.59661091      2.15733676      8.79259671
  H      0.04482776      3.58371884      6.89381036
  H      3.13066633      6.35998533      4.24534700
  H     -4.06281017      0.84061936      6.64531233
  H     -3.41407112      2.25261366      4.73316736
  P      3.88285304     -2.05906154     -4.10090537
  C      3.44863035     -3.81489164     -4.28818336
  C      3.75497217     -4.58127383     -5.41460382
  C      3.41408380     -5.92475102     -5.46083793
  C      2.76312191     -6.52004807     -4.38773804
  C      2.44179679     -5.76429584     -3.26769149
  C      2.77850922     -4.42127477     -3.22200355
  H      2.50212155     -7.57102311     -4.42529021
  H      4.26134988     -4.12611097     -6.25811092
  H      2.51902379     -3.82791467     -2.35103975
  H      1.92388671     -6.22021628     -2.43128220
  C      5.55515748     -2.11062726     -3.38122502
  C      6.13758944     -0.89175454     -3.02456996
  C      7.39888503     -0.85033346     -2.45287584
  C      8.09476197     -2.03005880     -2.22176995
  C      7.52440298     -3.24705663     -2.56893397
  C      6.26178380     -3.29082075     -3.14346338
  H      5.82853168     -4.24678883     -3.41332495
  H      9.08035588     -1.99942098     -1.77248145
  H      8.06607904     -4.16988268     -2.39669275
  H      5.59242907      0.02877193     -3.20258470
  H      3.66052183     -6.51095084     -6.33847282
  C      4.16466912     -1.41585649     -5.77664933
  C      3.18601203     -0.59437266     -6.34089258
  C      3.34534002     -0.07648780     -7.61624483
  C      4.49504600     -0.36309763     -8.34105214
  C      5.48366587     -1.16286638     -7.78327577
  C      5.32351456     -1.68685308     -6.50973583
  H      4.62331099      0.04357378     -9.33717453
  H      6.38671743     -1.37764258     -8.34273066
  H      6.10529855     -2.30010120     -6.07568330
  H      7.83815220      0.10378517     -2.18531098
  H      2.57360773      0.55428359     -8.04276683
  H      2.29839343     -0.35376055     -5.76456931
  P      3.32457388      2.84649204     -0.57656994
  C      3.59064327      2.70484512     -2.37635758
  C      2.48147717      2.82333771     -3.21726403
  C      2.61897811      2.72575457     -4.59283581
  C      3.87163560      2.50962979     -5.15113851
  C      4.98415446      2.40356494     -4.32756982
  C      4.84775770      2.50025065     -2.94980313
  H      3.98116846      2.42788815     -6.22604558
  H      1.50433849      3.00921227     -2.78632325
  H      5.72409611      2.41978770     -2.31716114
  H      5.96605927      2.24930289     -4.75964060
  C      4.80310067      2.05827953      0.13012756
  C      5.01324968      0.70083789     -0.13782517
  C      6.07296745      0.02162908      0.43969819
  C      6.93007638      0.68292223      1.31049671
  C      6.72128561      2.02415170      1.59770579
  C      5.66426256      2.70849359      1.01511569
  H      5.51027320      3.75673329      1.24450454
  H      7.75683991      0.15022655      1.76523163
  H      7.38534055      2.54351182      2.27877310
  H      4.34053883      0.17687375     -0.81057890
  H      1.74697601      2.82416833     -5.22972173
  C      3.54102203      4.62448393     -0.26128353
  C      2.68250018      5.25284070      0.64322506
  C      2.80222812      6.60703840      0.91354504
  C      3.78287402      7.35480390      0.27641083
  C      4.63842328      6.74378016     -0.63116078
  C      4.52038525      5.38971842     -0.90141388
  H      3.87908253      8.41389685      0.48435167
  H      5.40210381      7.32627731     -1.13304763
  H      5.18965277      4.92219559     -1.61506243
  H      6.22908047     -1.02625169      0.21136413
  H      2.12814204      7.07717969      1.62075605
  H      1.91428697      4.66992636      1.13947601

