#B3LYP/6-31+G(d) OPT FREQ

246, Energy =   -372.42951474 au

0 1
 Au     -1.29999150     -1.14418597      1.80748649
 Au      2.98039807     -1.38587980     -1.28507440
 Au      1.39719776     -1.60665318      1.01847545
 Au      0.00388989      0.71481599      0.30691487
 Au      3.32891556      0.43077525      0.49769512
 Au     -0.22436882      3.10389866     -0.73156858
 Au      1.50169856      1.29767512     -1.79715712
 Au     -0.60919818     -3.18019141      0.07172505
  P     -2.41367510      1.03064914      2.36939732
  C     -1.14704699      2.23738167      2.89269653
  C     -1.17470978      3.59722278      2.58077099
  C     -0.22202450      4.45885624      3.10306033
  C      0.76779220      3.97707130      3.94748498
  C      0.83435220      2.61992441      4.22915904
  C     -0.10928403      1.75646376      3.69684239
  H      1.49332497      4.65665154      4.37771690
  H     -1.95106784      3.99340776      1.93842261
  H     -0.04912970      0.69482905      3.90862960
  H      1.62009307      2.23311821      4.86797949
  C     -3.57223457      1.09064244      3.78527104
  C     -4.95168164      0.98405059      3.58022562
  C     -5.82419012      0.94256748      4.65648346
  C     -5.33580396      1.00054223      5.95424188
  C     -3.96857207      1.10386125      6.16974505
  C     -3.09270667      1.14186403      5.09624004
  H     -2.02735304      1.21979065      5.28210065
  H     -6.01866961      0.96728294      6.79477562
  H     -3.57812941      1.15207740      7.17969611
  H     -5.34752912      0.94201153      2.57169509
  H     -0.26331458      5.51404730      2.85768321
  C     -3.33987048      1.88213892      1.04824981
  C     -3.25688176      1.40115131     -0.25979792
  C     -3.90929347      2.04540586     -1.30033385
  C     -4.67153986      3.17647994     -1.04676949
  C     -4.78677602      3.65180060      0.25311288
  C     -4.12884881      3.01185101      1.29328742
  H     -5.18153153      3.68180491     -1.85863042
  H     -5.39876250      4.52182179      0.46088701
  H     -4.23724841      3.38755199      2.30424982
  H     -6.89033719      0.86374713      4.47777741
  H     -3.82413619      1.65894681     -2.30953384
  H     -2.68442446      0.50370734     -0.46316610
  P     -2.24736403     -2.75868242      3.47994516
  C     -4.04720118     -3.00870089      3.60738737
  C     -4.61144783     -4.02273670      4.38954171
  C     -5.98720001     -4.12105519      4.52177470
  C     -6.81794141     -3.20678148      3.88680732
  C     -6.26883582     -2.20942064      3.09345047
  C     -4.89325472     -2.12089365      2.94355141
  H     -7.89282548     -3.27619579      4.00491932
  H     -3.96922077     -4.73677153      4.89248407
  H     -4.46496205     -1.35554357      2.30471142
  H     -6.91219119     -1.49858060      2.58803159
  C     -1.78353765     -2.10306765      5.11661922
  C     -0.48856510     -1.59179873      5.25811097
  C     -0.07123493     -1.04671476      6.46167410
  C     -0.93988120     -1.00180512      7.54406655
  C     -2.22688098     -1.50420865      7.41478522
  C     -2.64874498     -2.04682743      6.20984126
  H     -3.66074437     -2.42423949      6.12250272
  H     -0.61395745     -0.57406028      8.48472321
  H     -2.90992232     -1.47326660      8.25569465
  H      0.19308190     -1.62561869      4.41420163
  H     -6.41266924     -4.90970185      5.13133812
  C     -1.61397735     -4.47106839      3.52237197
  C     -2.12593604     -5.38344768      2.59363972
  C     -1.67543762     -6.69317996      2.56794023
  C     -0.69216846     -7.10745586      3.45703778
  C     -0.16293927     -6.20509217      4.36814245
  C     -0.61587716     -4.89465850      4.40044065
  H     -0.34033245     -8.13210659      3.43870997
  H      0.60637104     -6.52242233      5.06252365
  H     -0.19718980     -4.20248573      5.12183479
  H      0.93438678     -0.65332589      6.55564686
  H     -2.09914221     -7.39663400      1.86051963
  H     -2.89967923     -5.06370918      1.90339223
  P      1.06873425     -5.03766057     -0.23689560
  C      1.86093517     -5.72125591      1.25978612
  C      2.01278297     -7.09170872      1.48542736
  C      2.63498083     -7.54882513      2.63762681
  C      3.11011006     -6.64979535      3.58233572
  C      2.95497226     -5.28477317      3.37513999
  C      2.33157877     -4.82924878      2.22644875
  H      3.59820312     -7.01041614      4.47991663
  H      1.64794103     -7.80435109      0.75512476
  H      2.20896629     -3.76079183      2.07159713
  H      3.31700612     -4.57532251      4.11027687
  C      2.51616433     -4.53925759     -1.24125931
  C      2.29208925     -3.74167775     -2.37085700
  C      3.35433370     -3.28947719     -3.15154177
  C      4.66130589     -3.61603071     -2.79719734
  C      4.89288702     -4.39939363     -1.67700505
  C      3.83232242     -4.85976003     -0.90766343
  H      4.03487600     -5.47146525     -0.03653992
  H      5.48852674     -3.26081589     -3.40010073
  H      5.90721538     -4.65938388     -1.39752704
  H      1.27858271     -3.49653662     -2.66050873
  H      2.75039099     -8.61473201      2.79583476
  C      0.43877321     -6.51324346     -1.10128152
  C     -0.89163093     -6.87719060     -0.87760449
  C     -1.43320304     -7.99422791     -1.49217768
  C     -0.65431137     -8.75502174     -2.35398785
  C      0.66438602     -8.39433340     -2.59651430
  C      1.21201854     -7.28271056     -1.97407343
  H     -1.07705300     -9.62557899     -2.84135852
  H      1.27266953     -8.98308665     -3.27325681
  H      2.24268036     -7.00865225     -2.16839409
  H      3.15510510     -2.71914659     -4.04979084
  H     -2.46635410     -8.26447684     -1.30663428
  H     -1.50513013     -6.26789648     -0.22225198
  P      4.34510531      2.03902638      1.89978480
  C      4.55107666      1.43450531      3.60078065
  C      5.61588489      1.82046497      4.41960576
  C      5.72631443      1.31918634      5.70750243
  C      4.78555196      0.42016766      6.19106836
  C      3.73302400      0.01773566      5.38007373
  C      3.61519009      0.52257130      4.09508058
  H      4.87777962      0.02482608      7.19578782
  H      6.36828674      2.50328734      4.04163196
  H      2.79715723      0.19909355      3.45891486
  H      3.00698216     -0.69916832      5.74605884
  C      3.67819507      3.72696423      2.05188638
  C      2.83238189      4.19567110      1.04635814
  C      2.32949268      5.48551628      1.09025637
  C      2.66698003      6.32995125      2.13817595
  C      3.50800361      5.87500890      3.14573285
  C      4.00886768      4.58213867      3.10637391
  H      4.65933487      4.23579724      3.90107104
  H      2.27234632      7.33881552      2.17057044
  H      3.77695932      6.52963757      3.96642091
  H      2.56956645      3.54144025      0.22205377
  H      6.55546870      1.62708610      6.33376312
  C      6.04908854      2.30091669      1.32540892
  C      6.87564364      1.17563621      1.23080461
  C      8.16477246      1.28813070      0.73689420
  C      8.64388080      2.52460884      0.31975353
  C      7.82806326      3.64430378      0.39890957
  C      6.53702571      3.53564228      0.89473967
  H      9.65202383      2.61268223     -0.06749009
  H      8.19684627      4.61022773      0.07326969
  H      5.90817276      4.41683401      0.95010902
  H      1.67260851      5.83172950      0.30161170
  H      8.79754467      0.41009757      0.67727142
  H      6.50114614      0.20894777      1.55158844
  P     -2.50620042     -3.30604256     -1.51071981
  C     -2.52103963     -4.66123431     -2.74075472
  C     -3.66136952     -5.37228298     -3.11887037
  C     -3.58392135     -6.35382397     -4.09646721
  C     -2.37556379     -6.63313556     -4.71856020
  C     -1.23570786     -5.92715452     -4.35699702
  C     -1.31066594     -4.95497871     -3.37382294
  H     -2.32082863     -7.39972042     -5.48229907
  H     -4.61632295     -5.16321724     -2.65177933
  H     -0.41686872     -4.41606882     -3.08109545
  H     -0.28565132     -6.13932329     -4.83374435
  C     -2.59005466     -1.87810111     -2.64991936
  C     -1.66490902     -0.84185457     -2.54529173
  C     -1.68974753      0.22463270     -3.43182175
  C     -2.63844957      0.26764425     -4.44232379
  C     -3.56658112     -0.75958413     -4.55898607
  C     -3.54234042     -1.82441272     -3.67363192
  H     -4.26434141     -2.62658731     -3.77896527
  H     -2.65034986      1.09438654     -5.14278334
  H     -4.30959329     -0.73270137     -5.34743835
  H     -0.91162392     -0.87525516     -1.76679275
  H     -4.47765718     -6.89980810     -4.37535633
  C     -4.17507010     -3.36248564     -0.78783425
  C     -4.60526046     -4.54761844     -0.18024959
  C     -5.87066805     -4.63581704      0.37715553
  C     -6.72313056     -3.54034554      0.34182714
  C     -6.29250662     -2.34741145     -0.22310902
  C     -5.02365070     -2.25341167     -0.77425897
  H     -7.71965851     -3.61485677      0.76037164
  H     -6.94903998     -1.48504057     -0.24046683
  H     -4.69807851     -1.31615576     -1.21164504
  H     -0.95725292      1.01819061     -3.33588700
  H     -6.19482713     -5.56426056      0.83264927
  H     -3.94922528     -5.41147365     -0.16524956
  P      2.58183247      1.19362782     -3.90883131
  C      1.78326667      0.00452393     -5.03038544
  C      1.83462443      0.12766111     -6.42188782
  C      1.19005643     -0.79469894     -7.23170779
  C      0.48194680     -1.84792638     -6.66861830
  C      0.42021106     -1.97806674     -5.28821491
  C      1.06600326     -1.05797904     -4.47793427
  H     -0.02626811     -2.56354079     -7.30414823
  H      2.37545697      0.95274976     -6.87102042
  H      1.00514468     -1.15169662     -3.39910701
  H     -0.14145109     -2.79063594     -4.84137616
  C      4.31854408      0.66305805     -3.81739024
  C      5.08603396      1.13939164     -2.74884658
  C      6.39693679      0.72474314     -2.57979841
  C      6.95866659     -0.17864204     -3.47245337
  C      6.20675236     -0.65894315     -4.53610464
  C      4.89479793     -0.24309415     -4.70970865
  H      4.31517651     -0.62590274     -5.54191726
  H      7.98183376     -0.50906866     -3.33768151
  H      6.64349216     -1.36077622     -5.23712397
  H      4.64689469      1.84246971     -2.04811160
  H      1.23792578     -0.68766350     -8.30909436
  C      2.56952384      2.72926751     -4.88128681
  C      1.33095006      3.35384785     -5.06245371
  C      1.23113033      4.51984874     -5.80179494
  C      2.37109400      5.08500575     -6.36017403
  C      3.60714366      4.48262636     -6.17122153
  C      3.71036519      3.31098433     -5.43474513
  H      2.29507555      5.99849860     -6.93797608
  H      4.49808526      4.92471407     -6.60177041
  H      4.67836881      2.84386162     -5.29434266
  H      6.97860714      1.10132586     -1.74600033
  H      0.26449059      4.99137024     -5.93769469
  H      0.44181788      2.91410748     -4.62110421
  P     -0.73323539      5.30108184     -1.46600162
  C     -1.14601268      6.54076658     -0.20235313
  C     -0.32909075      7.63076939      0.10355110
  C     -0.64791619      8.47166766      1.16010161
  C     -1.78128244      8.23607658      1.92531612
  C     -2.60628194      7.15908722      1.62526962
  C     -2.28906333      6.31614452      0.57292648
  H     -2.02517834      8.89271787      2.75199220
  H      0.55387390      7.83205545     -0.49201014
  H     -2.93558819      5.47684413      0.33770336
  H     -3.49766651      6.97404199      2.21363465
  C     -2.14406233      5.34065284     -2.61270479
  C     -2.30928207      4.24882932     -3.46888521
  C     -3.35686491      4.21276818     -4.37435602
  C     -4.26215870      5.26488958     -4.43002154
  C     -4.11106285      6.35204591     -3.58039701
  C     -3.05864095      6.39368272     -2.67811268
  H     -2.95132286      7.24579217     -2.01698018
  H     -5.08506953      5.23556495     -5.13435635
  H     -4.81585686      7.17440006     -3.61988699
  H     -1.60939230      3.42088476     -3.41548112
  H     -0.00625545      9.31603538      1.38411911
  C      0.61853363      6.04957177     -2.42867042
  C      1.87175921      5.43450611     -2.43454111
  C      2.93535900      5.99838602     -3.12127301
  C      2.75539314      7.18053703     -3.82580535
  C      1.50767955      7.79072117     -3.84717665
  C      0.44563410      7.23239686     -3.15379631
  H      3.58529059      7.62293764     -4.36409102
  H      1.36190240      8.70840459     -4.40495698
  H     -0.52548535      7.71446061     -3.17445806
  H     -3.47088316      3.36075508     -5.03504793
  H      3.90287683      5.50935632     -3.11180609
  H      2.01125705      4.50182927     -1.89892863

