#B3LYP/6-31+G(d) OPT FREQ

246, Energy =   -372.43297314 au

0 1
 Au     -0.77023945     -0.46927182     -2.76622650
 Au      0.87338984     -0.37802923      2.54563958
 Au     -0.96543036     -0.16261848      0.21735588
 Au      3.52504712     -2.05667875     -1.66144296
 Au      1.89526047     -1.27297503      0.37186440
 Au      2.02283101     -0.01850757     -2.26305290
 Au     -1.42408455      2.48893470      0.54328590
 Au      1.05653236      1.52017839      0.09881240
  P     -2.57434471     -1.89184475      0.72739118
  C     -4.16818804     -1.17251824      1.24749929
  C     -5.35725624     -1.90819342      1.26564697
  C     -6.53365364     -1.33540628      1.72424226
  C     -6.54311324     -0.02410166      2.18068358
  C     -5.37159891      0.72076888      2.15671710
  C     -4.19921737      0.15251326      1.68301918
  H     -7.46118948      0.41875058      2.54808927
  H     -5.36316889     -2.93476087      0.91772564
  H     -3.29305042      0.74659902      1.64648347
  H     -5.36999867      1.74776638      2.50310287
  C     -2.04142701     -2.80917254      2.21548508
  C     -0.71342931     -3.24132824      2.27346087
  C     -0.21620990     -3.87872124      3.39849306
  C     -1.04383745     -4.09934968      4.49147013
  C     -2.36926523     -3.69139101      4.44233924
  C     -2.86637966     -3.05273067      3.31514542
  H     -3.90277651     -2.73695215      3.29694821
  H     -0.65781794     -4.59251464      5.37575992
  H     -3.02288791     -3.86375237      5.28956765
  H     -0.06293355     -3.07211859      1.42493602
  H     -7.44644560     -1.91960079      1.73151869
  C     -3.12344954     -3.20752597     -0.41253221
  C     -3.43897639     -2.85164946     -1.72518882
  C     -3.92673722     -3.79360588     -2.61621313
  C     -4.09435520     -5.11097667     -2.21081613
  C     -3.77003274     -5.47976730     -0.91297732
  C     -3.28907836     -4.53654574     -0.01730024
  H     -4.47416251     -5.84878706     -2.90753936
  H     -3.89361143     -6.50777134     -0.59272888
  H     -3.04102553     -4.83459003      0.99474297
  H      0.81996459     -4.19698622      3.42008840
  H     -4.17760365     -3.50194930     -3.62952395
  H     -3.30991874     -1.82174124     -2.04240743
  P      4.77928905     -3.83687370     -0.70421919
  C      4.47990009     -5.48148659     -1.41622057
  C      5.48536822     -6.27443758     -1.97245747
  C      5.17316738     -7.48913977     -2.56515652
  C      3.85812237     -7.92901138     -2.61287242
  C      2.84953492     -7.14861092     -2.06265893
  C      3.15651478     -5.93219250     -1.47573117
  H      3.61798069     -8.87763998     -3.07819048
  H      6.51746667     -5.94613980     -1.93941673
  H      2.36705954     -5.32206909     -1.05026683
  H      1.81916089     -7.48460448     -2.09427049
  C      4.33190218     -3.97492186      1.05647718
  C      4.39309691     -2.81136126      1.83268057
  C      4.00051953     -2.82049875      3.16112740
  C      3.52922846     -3.99324683      3.73705802
  C      3.46503889     -5.15431375      2.97873059
  C      3.86340368     -5.14794284      1.64898293
  H      3.80972380     -6.06393927      1.07241115
  H      3.21905207     -4.00015552      4.77585815
  H      3.10561873     -6.07481159      3.42406940
  H      4.75914743     -1.89280937      1.38991063
  H      5.96461666     -8.09451960     -2.99142805
  C      6.58394614     -3.63964043     -0.73242345
  C      7.18810440     -3.39286697     -1.97103912
  C      8.56031451     -3.22407473     -2.06356247
  C      9.34569254     -3.28424001     -0.91926100
  C      8.75463257     -3.51690749      0.31441139
  C      7.38234683     -3.69522093      0.41135021
  H     10.41828721     -3.14828646     -0.99065843
  H      9.36434992     -3.56392758      1.20922280
  H      6.93140114     -3.88290662      1.37886816
  H      4.05714241     -1.90957613      3.74686573
  H      9.01656477     -3.04279146     -3.02974796
  H      6.57356231     -3.33662369     -2.86384835
  P     -0.22793077     -2.64490548     -3.75659649
  C      1.48102700     -2.69787400     -4.38635415
  C      2.40594692     -3.68256532     -4.03579525
  C      3.71324413     -3.61902345     -4.50488410
  C      4.11366806     -2.57277966     -5.32355384
  C      3.20057776     -1.58831998     -5.67984395
  C      1.89855397     -1.64776780     -5.21140330
  H      5.13405405     -2.52493261     -5.68470799
  H      2.10502115     -4.51252488     -3.40838401
  H      1.19038278     -0.87464525     -5.48923714
  H      3.50524749     -0.76860726     -6.31984631
  C     -1.18368048     -2.96573296     -5.27303836
  C     -2.43527556     -2.36737044     -5.42218201
  C     -3.19262550     -2.57667195     -6.56368309
  C     -2.70333395     -3.38718459     -7.57854837
  C     -1.45559272     -3.98239478     -7.44702440
  C     -0.69742013     -3.77481546     -6.30528025
  H      0.28130862     -4.23288823     -6.21856644
  H     -3.29054848     -3.54948976     -8.47459285
  H     -1.06718242     -4.61029500     -8.24037310
  H     -2.80691788     -1.71761515     -4.63856009
  H      4.41573717     -4.39732113     -4.22993794
  C     -0.36883327     -4.17355811     -2.76912235
  C     -0.02476565     -4.11935125     -1.41590547
  C     -0.10289071     -5.25136796     -0.61944782
  C     -0.53757867     -6.45400364     -1.16174003
  C     -0.89250875     -6.51708155     -2.50249601
  C     -0.81134267     -5.38670843     -3.30137228
  H     -0.60826524     -7.33643606     -0.53711714
  H     -1.23927756     -7.45082895     -2.92935936
  H     -1.09780557     -5.44826773     -4.34471581
  H     -4.16025804     -2.09823750     -6.66272536
  H      0.16604682     -5.19467709      0.42875624
  H      0.30662891     -3.18018966     -0.98456063
  P     -2.62983397      4.38713144      1.34401723
  C     -4.32382067      4.69229194      0.75589495
  C     -5.44299842      4.46716773      1.56047174
  C     -6.72152590      4.61503747      1.04247072
  C     -6.90130618      4.98491352     -0.28360006
  C     -5.79535265      5.20997244     -1.09304352
  C     -4.51743353      5.05917345     -0.57977851
  H     -7.90104646      5.09964340     -0.68529105
  H     -5.31478789      4.18726859      2.59993294
  H     -3.65733808      5.23679625     -1.21526269
  H     -5.92716509      5.50138579     -2.12884955
  C     -1.70382537      5.88745476      0.90232742
  C     -0.31272451      5.78124486      0.81275530
  C      0.46250176      6.87989869      0.47946995
  C     -0.14289936      8.10256873      0.22042045
  C     -1.52330837      8.22096369      0.30459976
  C     -2.30075326      7.12413722      0.64626637
  H     -3.37784044      7.22833729      0.70769768
  H      0.46129520      8.96100997     -0.04842307
  H     -1.99987591      9.17360056      0.10469293
  H      0.16213442      4.82351879      0.99949879
  H     -7.58080959      4.44303296      1.68027141
  C     -2.78543601      4.48144673      3.15663873
  C     -2.93234762      3.29566949      3.88072317
  C     -3.06341956      3.32237648      5.26043271
  C     -3.03340026      4.53324896      5.93775832
  C     -2.87871384      5.71741417      5.22965099
  C     -2.75938433      5.69488811      3.84871674
  H     -3.12748654      4.55349486      7.01708917
  H     -2.85195126      6.66521494      5.75457059
  H     -2.64137514      6.62516530      3.30481514
  H      1.53981465      6.77838927      0.41416805
  H     -3.18309451      2.39509363      5.80823564
  H     -2.93511310      2.34582940      3.35703724
  P      0.33080683      0.32006689      4.75335060
  C     -1.29974500     -0.00165307      5.50164476
  C     -1.50339837      0.00555206      6.88440461
  C     -2.77355911     -0.18253178      7.40559170
  C     -3.85828481     -0.36403842      6.55680773
  C     -3.66802610     -0.36255523      5.18203078
  C     -2.39526880     -0.18797404      4.65876417
  H     -4.85126732     -0.50507315      6.96704261
  H     -0.66466238      0.16001066      7.55376666
  H     -2.24318366     -0.19923937      3.58482251
  H     -4.51195599     -0.49538580      4.51480559
  C      0.55392918      2.08965508      5.13693248
  C      0.23416072      3.02033798      4.14613199
  C      0.36148435      4.38029072      4.38311197
  C      0.79885088      4.82979022      5.62113554
  C      1.10991018      3.91419236      6.61805904
  C      0.99092300      2.55316214      6.37986287
  H      1.24168437      1.84683746      7.16295700
  H      0.89648930      5.89249731      5.80900690
  H      1.44853847      4.26122620      7.58729097
  H     -0.12167489      2.67196211      3.18121571
  H     -2.91893482     -0.18153418      8.47955731
  C      1.52328187     -0.55260383      5.80295080
  C      1.20271792     -1.77161636      6.40524731
  C      2.17857090     -2.51565465      7.05141989
  C      3.49001615     -2.06143624      7.09275795
  C      3.82493029     -0.86058529      6.47954944
  C      2.85203694     -0.11573023      5.83240909
  H      4.25135679     -2.64394509      7.59786744
  H      4.84841536     -0.50442784      6.50269533
  H      3.12216291      0.81429980      5.34324561
  H      0.11675400      5.08944462      3.60032451
  H      1.91305387     -3.45470992      7.52325007
  H      0.18378066     -2.14118097      6.36562186
  P      3.15812797      2.67464861     -0.05676149
  C      3.11541987      4.16249466     -1.10225461
  C      3.61269386      5.40514770     -0.70639852
  C      3.53838533      6.49563852     -1.56155469
  C      2.96897121      6.36241884     -2.82015826
  C      2.45734051      5.13464643     -3.21977822
  C      2.52016115      4.04693979     -2.36263603
  H      2.91831231      7.21452485     -3.48750760
  H      4.06476415      5.52303022      0.27144881
  H      2.09701684      3.09508052     -2.66882070
  H      2.00355453      5.02365722     -4.19785158
  C      4.47173185      1.65908360     -0.81828269
  C      5.08943227      0.68914955     -0.02292934
  C      6.04198138     -0.16238330     -0.55982679
  C      6.38063647     -0.07175114     -1.90503824
  C      5.76727835      0.88042126     -2.70573744
  C      4.82103818      1.74061616     -2.16724288
  H      4.36698896      2.49046350     -2.80317450
  H      7.12819068     -0.73619841     -2.32132717
  H      6.02939836      0.96102163     -3.75426566
  H      4.82804062      0.60868241      1.02663825
  H      3.93347402      7.45310990     -1.24247282
  C      3.96219487      3.17319882      1.49559112
  C      3.25432160      3.07446617      2.69266582
  C      3.84852925      3.41901626      3.89705130
  C      5.16204452      3.86520397      3.91950869
  C      5.88118426      3.96026671      2.73486054
  C      5.29018930      3.61471581      1.53052748
  H      5.62765399      4.13450549      4.86027296
  H      6.90956293      4.30199332      2.74949506
  H      5.86257863      3.67609483      0.61171462
  H      6.52983737     -0.89311022      0.07464538
  H      3.28556583      3.33942141      4.81979617
  H      2.23017703      2.71930471      2.67496966
  P     -2.37479005      1.22399334     -3.46765324
  C     -4.00564976      0.98945500     -2.69653542
  C     -4.39163253      1.77149981     -1.60536745
  C     -5.59560481      1.54040297     -0.96019191
  C     -6.42557723      0.50931629     -1.37672482
  C     -6.04641994     -0.28841883     -2.44732871
  C     -4.84723611     -0.05207050     -3.10138015
  H     -7.36365550      0.32690240     -0.86592539
  H     -3.75017630      2.57743241     -1.26675616
  H     -4.56917691     -0.67455219     -3.94373937
  H     -6.68657879     -1.09803120     -2.77801126
  C     -2.65450580      1.06121859     -5.25918990
  C     -1.54882337      0.74404073     -6.05340697
  C     -1.67455791      0.61624202     -7.42664749
  C     -2.91240006      0.80030372     -8.02824258
  C     -4.01725435      1.12076345     -7.25132429
  C     -3.89272125      1.25541137     -5.87652940
  H     -4.76455679      1.50637732     -5.28358625
  H     -3.01571322      0.69365454     -9.10153685
  H     -4.98457315      1.26888500     -7.71710266
  H     -0.58260865      0.59152261     -5.58300546
  H     -5.88591778      2.16790293     -0.12585573
  C     -2.10415998      3.02242677     -3.27945168
  C     -0.97367306      3.49838300     -2.61658300
  C     -0.77971049      4.86027891     -2.43673596
  C     -1.69665106      5.76710898     -2.94655776
  C     -2.81200914      5.30580314     -3.63624357
  C     -3.02066976      3.94477300     -3.79411845
  H     -1.54178259      6.83104280     -2.81080506
  H     -3.52507399      6.00958752     -4.04942435
  H     -3.90072062      3.59546601     -4.32209750
  H     -0.80701615      0.36676100     -8.02645549
  H      0.09324089      5.21139714     -1.90003096
  H     -0.23699684      2.79634471     -2.24636419

