#B3LYP/6-31+G(d) OPT FREQ

246, Energy =   -372.43012449 au

0 1
 Au     -1.37095824     -1.24303499      2.90300226
 Au     -0.81419849     -0.36453439     -2.61239722
 Au     -0.55708879     -2.86174810     -1.54969039
 Au     -0.88713600      0.97688545      4.15084062
 Au     -1.77656531     -0.86150111     -0.09658589
 Au      0.24256060      0.67334472      1.73894700
 Au      2.28287920      1.43695057      0.16074977
 Au      0.97461168     -0.82735281     -0.45970641
  P     -3.88689721      0.02906416      0.57346001
  C     -4.64854790     -0.96276393      1.88715360
  C     -4.44692364     -0.63642580      3.23296611
  C     -4.87059803     -1.49417771      4.23763471
  C     -5.50075296     -2.68819407      3.91538200
  C     -5.71675327     -3.01689393      2.58367986
  C     -5.28726209     -2.16670702      1.57690681
  H     -5.82819003     -3.35902741      4.70068715
  H     -3.98126006      0.30611644      3.49415812
  H     -5.44882741     -2.43729304      0.53940391
  H     -6.21432893     -3.94469276      2.32570605
  C     -5.10320327      0.06042848     -0.78006455
  C     -4.63668173      0.15303757     -2.09266797
  C     -5.51876630      0.19038448     -3.16046980
  C     -6.88701128      0.13253950     -2.92942917
  C     -7.36417928      0.03993383     -1.62897883
  C     -6.48236763      0.00568789     -0.55990633
  H     -6.86722519     -0.06995874      0.45052669
  H     -7.57963364      0.15776246     -3.76229831
  H     -8.43102252     -0.00646362     -1.44414078
  H     -3.56767191      0.19104169     -2.27945542
  H     -4.70907291     -1.22444057      5.27481429
  C     -3.89511853      1.72362487      1.24086290
  C     -2.72306613      2.47824089      1.21536004
  C     -2.69873422      3.76914680      1.71937525
  C     -3.85127199      4.32474747      2.25513871
  C     -5.02601852      3.58425373      2.28585077
  C     -5.05180102      2.29384864      1.78243428
  H     -3.83595961      5.33451290      2.64798568
  H     -5.92838855      4.01454886      2.70416850
  H     -5.97355039      1.72398302      1.81065489
  H     -5.13712494      0.26534269     -4.17255703
  H     -1.77950309      4.34219111      1.68131780
  H     -1.82265824      2.05326103      0.78743169
  P     -0.17837961      2.56228638      5.79348704
  C     -0.01618043      1.77749848      7.42588331
  C      0.88367602      2.20962540      8.40390651
  C      0.95958472      1.55567561      9.62365486
  C      0.14281616      0.46340436      9.88418377
  C     -0.75113781      0.02175950      8.91825640
  C     -0.82719957      0.67267733      7.69739135
  H      0.20641477     -0.04631953     10.83836213
  H      1.53144215      3.05657917      8.20784273
  H     -1.52133365      0.32346260      6.93924678
  H     -1.38753213     -0.83370517      9.11409427
  C     -1.10935543      4.09842995      6.09606279
  C     -1.42415637      4.88508235      4.98349156
  C     -2.12459604      6.07052238      5.13235365
  C     -2.53720321      6.47830270      6.39483522
  C     -2.24683112      5.69553933      7.50303133
  C     -1.53718997      4.51222924      7.35807448
  H     -1.31237395      3.90972691      8.23056966
  H     -3.08746014      7.40438502      6.51245733
  H     -2.57139567      6.00786832      8.48883286
  H     -1.11471474      4.55787969      3.99599808
  H      1.66183581      1.90014535     10.37393269
  C      1.50255775      3.17729171      5.44196176
  C      2.34209109      2.40159552      4.64015874
  C      3.63383165      2.81467699      4.35623087
  C      4.10847283      4.01281099      4.87151608
  C      3.28459985      4.79545894      5.66858593
  C      1.99011474      4.38445900      5.95105050
  H      5.11890390      4.33592574      4.64930399
  H      3.64971711      5.73280583      6.07209844
  H      1.35210163      5.00815850      6.56675729
  H     -2.35035936      6.67734743      4.26260279
  H      4.27305637      2.20068890      3.73173933
  H      1.97558613      1.46384922      4.23622413
  P     -1.34023870     -3.61448758      2.50279076
  C     -2.60429846     -4.64931306      1.68270626
  C     -3.16123258     -4.20343967      0.48240937
  C     -4.13776876     -4.93628466     -0.17175866
  C     -4.58849716     -6.13044877      0.37759978
  C     -4.05468365     -6.57993839      1.57738201
  C     -3.07277520     -5.84709925      2.22733148
  H     -5.35718216     -6.70359975     -0.12690152
  H     -2.82980735     -3.26061876      0.05959799
  H     -2.66661107     -6.20995703      3.16417031
  H     -4.40542024     -7.50818655      2.01312957
  C     -1.04448066     -4.44865807      4.08936172
  C     -1.69206379     -3.94426147      5.22022985
  C     -1.50192730     -4.53018446      6.46126892
  C     -0.65666302     -5.62431437      6.58885965
  C     -0.00413219     -6.13055347      5.47260042
  C     -0.19454953     -5.54916454      4.22866627
  H      0.32154053     -5.94630287      3.36170980
  H     -0.50339965     -6.08073462      7.55965229
  H      0.65812871     -6.98293939      5.57046704
  H     -2.34798119     -3.08548009      5.11960055
  H     -4.55368976     -4.56899049     -1.10290983
  C      0.17971810     -3.96522667      1.55766971
  C      1.29762081     -3.16538891      1.81325318
  C      2.46909171     -3.32648016      1.09003517
  C      2.54889556     -4.29860373      0.10069828
  C      1.45437631     -5.11239547     -0.15053999
  C      0.27495203     -4.94565627      0.56700912
  H      3.46350916     -4.42328266     -0.46676785
  H      1.51359261     -5.88456411     -0.90873019
  H     -0.56897072     -5.59435447      0.36346619
  H     -2.01039363     -4.12923787      7.33051095
  H      3.32264739     -2.69601678      1.30426115
  H      1.24659732     -2.40841030      2.58740823
  P      4.74531345      0.97086777      0.23538112
  C      5.53382816      0.33912831     -1.28040112
  C      6.46861621      1.06378164     -2.02256334
  C      6.95990822      0.56045076     -3.21883503
  C      6.51459081     -0.66347995     -3.69892338
  C      5.56462010     -1.38176068     -2.98271610
  C      5.07465012     -0.88236950     -1.78800712
  H      6.90442645     -1.05710741     -4.63022054
  H      6.82402092      2.02133038     -1.65929471
  H      4.32941841     -1.44519530     -1.23394837
  H      5.20454290     -2.33328287     -3.35756454
  C      5.04286761     -0.37615797      1.43582480
  C      4.18413370     -0.46874005      2.53386352
  C      4.37423850     -1.43577647      3.50850622
  C      5.42734327     -2.33401100      3.39457669
  C      6.28338240     -2.25833618      2.30425428
  C      6.09704654     -1.28644974      1.33258476
  H      6.77260035     -1.23971171      0.48617719
  H      5.57823415     -3.09331985      4.15281477
  H      7.10465936     -2.95929602      2.20960809
  H      3.35069993      0.22019231      2.61653165
  H      7.69589021      1.12777132     -3.77677332
  C      5.87300656      2.25147622      0.89019000
  C      5.31674929      3.44744669      1.34740941
  C      6.11779841      4.44562949      1.88096027
  C      7.48924454      4.25557255      1.97341728
  C      8.05305837      3.06340267      1.53671154
  C      7.25396702      2.06571244      1.00105618
  H      8.11895798      5.03351450      2.38878571
  H      9.12291751      2.90876024      1.61541277
  H      7.70356992      1.13548904      0.67214646
  H      3.69764235     -1.48940248      4.35391868
  H      5.66760600      5.37219976      2.21962392
  H      4.24386438      3.59422593      1.28448167
  P     -1.00474769     -4.69231711     -3.06053436
  C     -0.69028143     -6.42829234     -2.62850033
  C     -1.55150936     -7.06177474     -1.72496240
  C     -1.28655904     -8.34848488     -1.28558301
  C     -0.15376563     -9.01692419     -1.73199865
  C      0.71213950     -8.39395769     -2.62010111
  C      0.45238547     -7.10517126     -3.06254274
  H      0.05373999    -10.02285047     -1.38690431
  H     -2.43856153     -6.54382716     -1.37599550
  H      1.13340018     -6.62518343     -3.75628610
  H      1.59695137     -8.91233426     -2.97079741
  C     -0.08154040     -4.40221276     -4.60474359
  C      0.94118082     -3.45081570     -4.60044335
  C      1.63994253     -3.15094719     -5.75899736
  C      1.32675727     -3.80297144     -6.94328567
  C      0.31924699     -4.75891446     -6.96037116
  C     -0.38187568     -5.05764134     -5.80246476
  H     -1.17045777     -5.80093784     -5.82927280
  H      1.86701132     -3.56693775     -7.85248450
  H      0.07476226     -5.27267676     -7.88274251
  H      1.18809087     -2.93847365     -3.67651709
  H     -1.96616625     -8.82918437     -0.59121755
  C     -2.74675500     -4.67821441     -3.59366425
  C     -3.48314489     -3.50209717     -3.42748424
  C     -4.80600849     -3.42681626     -3.83331395
  C     -5.41755607     -4.53237693     -4.40898750
  C     -4.70156348     -5.71082313     -4.56962631
  C     -3.37751042     -5.78679015     -4.16512989
  H     -6.45227411     -4.47697680     -4.72589799
  H     -5.17695264     -6.57881655     -5.01136261
  H     -2.83335014     -6.71648220     -4.28502590
  H      2.42504702     -2.40344185     -5.73607124
  H     -5.35892309     -2.50418437     -3.69510380
  H     -3.01433743     -2.63829889     -2.96768756
  P      1.82509531      3.84572922     -0.42625455
  C      0.08338056      4.17704741     -0.88601526
  C     -0.52724002      5.42438504     -0.72460835
  C     -1.85123775      5.61536490     -1.09169093
  C     -2.59146904      4.56543185     -1.61818254
  C     -1.99884877      3.32114764     -1.77873995
  C     -0.67358581      3.13353714     -1.41954471
  H     -3.62754893      4.71415808     -1.89872802
  H      0.03682690      6.25087151     -0.30817143
  H     -0.21797429      2.15777603     -1.54985305
  H     -2.56951371      2.49195435     -2.18198163
  C      2.73466624      4.41545397     -1.90467732
  C      4.08542527      4.07315277     -2.01823520
  C      4.82227033      4.44494141     -3.13194740
  C      4.21497200      5.15077078     -4.16181861
  C      2.87288562      5.49084157     -4.06481611
  C      2.13773478      5.13004923     -2.94538276
  H      1.09284455      5.41026006     -2.87970480
  H      4.78643621      5.43487509     -5.03747541
  H      2.39388684      6.04543464     -4.86367420
  H      4.56313912      3.51029009     -1.22378236
  H     -2.30776664      6.58988870     -0.96307224
  C      2.13416363      5.14551984      0.81849850
  C      1.40650308      5.08383730      2.01230995
  C      1.61271073      6.01950276      3.01169376
  C      2.57059309      7.01220690      2.84999852
  C      3.31522174      7.06821764      1.68044524
  C      3.09771637      6.14460372      0.66806766
  H      2.73634019      7.73889198      3.63655677
  H      4.06442307      7.84031906      1.54911368
  H      3.67745786      6.20381077     -0.24583674
  H      5.87067989      4.17729976     -3.19693354
  H      1.02961783      5.97036232      3.92421561
  H      0.66967345      4.29827101      2.15111441
  P     -0.54442894      0.71204953     -4.69039892
  C     -1.19116411      2.39673194     -4.90938136
  C     -0.37630098      3.52933669     -4.93184854
  C     -0.93926005      4.79207190     -5.04441656
  C     -2.31635914      4.94114344     -5.12572716
  C     -3.13644453      3.82011348     -5.09767581
  C     -2.57934962      2.55700693     -4.98621619
  H     -2.75152239      5.92963580     -5.21244396
  H      0.70090694      3.42537102     -4.86742443
  H     -3.22175700      1.68253216     -4.96555222
  H     -4.21272828      3.93007763     -5.16205162
  C     -1.25300583     -0.21002303     -6.08215288
  C     -1.67514747     -1.52405984     -5.87604832
  C     -2.21206544     -2.26751274     -6.91445454
  C     -2.33462083     -1.70447976     -8.17710863
  C     -1.92604134     -0.39478562     -8.39394698
  C     -1.39149832      0.35182217     -7.35595575
  H     -1.08567177      1.37743947     -7.52911470
  H     -2.75324230     -2.28407389     -8.99135709
  H     -2.02615106      0.04924526     -9.37744237
  H     -1.57995871     -1.96417131     -4.88915807
  H     -0.29695438      5.66463106     -5.07282573
  C      1.23754395      0.83355469     -5.01987675
  C      2.05888991      1.28703542     -3.98239653
  C      3.42964349      1.37244791     -4.15428074
  C      4.00356129      0.99614855     -5.36113817
  C      3.20074897      0.52981458     -6.39225281
  C      1.82591065      0.44777402     -6.22520096
  H      5.07735189      1.05886607     -5.49205550
  H      3.64469789      0.22812760     -7.33377511
  H      1.20839486      0.08143016     -7.03712033
  H     -2.53416843     -3.28710507     -6.73547261
  H      4.05185968      1.73010481     -3.34225537
  H      1.61770328      1.57170316     -3.03239613

