#B3LYP/6-31+G(d) OPT FREQ

246, Energy =   -372.45160289 au

0 1
 Au      2.30163709      2.15951169     -0.59789867
 Au      1.71146012     -0.49192319      0.53795907
 Au     -2.35937722      1.70692407     -2.05544861
 Au      1.88308624      0.16521563     -2.25451839
 Au     -0.96655332     -1.62020613      0.54741915
 Au     -0.34590666      0.16214162      2.37696125
 Au     -2.56525610      0.99816454      0.53674841
 Au     -0.20987283      1.04019190     -0.63613658
  P      3.60884449     -1.73092582      1.32515133
  C      5.25258702     -1.12029074      0.83342674
  C      6.40471504     -1.42318651      1.56584250
  C      7.63690505     -0.92533636      1.17198797
  C      7.73800908     -0.11456586      0.04859708
  C      6.60063101      0.19526216     -0.68429040
  C      5.36937904     -0.30781877     -0.29544988
  H      8.70165940      0.27821632     -0.25340698
  H      6.33256951     -2.04763822      2.44898204
  H      4.48442595     -0.06710544     -0.87504016
  H      6.67054268      0.83048642     -1.55963059
  C      3.57229955     -3.47105222      0.80303050
  C      2.40206628     -4.19989150      1.04367817
  C      2.31377076     -5.53267569      0.67500321
  C      3.38013610     -6.14800253      0.03013563
  C      4.53178291     -5.42409242     -0.24391158
  C      4.63202048     -4.09602298      0.14404416
  H      5.54227505     -3.54406702     -0.06017932
  H      3.30877766     -7.18874975     -0.26286604
  H      5.36211652     -5.89691602     -0.75538427
  H      1.55766686     -3.71609337      1.52474332
  H      8.52245629     -1.16953578      1.74688112
  C      3.71212813     -1.79406805      3.14241362
  C      3.94718842     -0.58762528      3.81101004
  C      3.97506426     -0.54078709      5.19460861
  C      3.75194907     -1.69459178      5.93470281
  C      3.51194043     -2.89546200      5.28240736
  C      3.49083648     -2.94768237      3.89615400
  H      3.76613103     -1.65659007      7.01750892
  H      3.34340461     -3.80083826      5.85409475
  H      3.30854429     -3.89479009      3.40196957
  H      1.41068593     -6.09210210      0.89063276
  H      4.16865257      0.39943301      5.69794257
  H      4.11306124      0.31874647      3.23733604
  P      2.75888661     -1.24184690     -3.96280088
  C      4.56882061     -1.36613954     -3.81854500
  C      5.17630890     -2.43001292     -3.14704891
  C      6.55281218     -2.46560240     -2.98589205
  C      7.34107509     -1.43762001     -3.48425609
  C      6.74572982     -0.36435855     -4.13532556
  C      5.36947484     -0.32320835     -4.29461455
  H      8.41729112     -1.46972944     -3.36253666
  H      4.57061820     -3.23898301     -2.75372476
  H      4.91026344      0.51949294     -4.80019976
  H      7.35598457      0.44330088     -4.52256780
  C      2.46559235     -0.72693239     -5.67898216
  C      1.33771547      0.05391160     -5.94227017
  C      1.03766196      0.44734988     -7.23649790
  C      1.86744589      0.07472107     -8.28499040
  C      3.00047695     -0.68771339     -8.03369542
  C      3.30078593     -1.08814819     -6.74100975
  H      4.19341206     -1.67390181     -6.55303290
  H      1.63479691      0.38397352     -9.29717359
  H      3.65533436     -0.97292567     -8.84882371
  H      0.69364396      0.35469182     -5.12211362
  H      7.01081936     -3.30211557     -2.47050842
  C      2.24279629     -2.98657248     -3.88704210
  C      1.81787756     -3.49609583     -2.65713410
  C      1.46355301     -4.82975475     -2.53336100
  C      1.53060635     -5.67257538     -3.63389992
  C      1.93195686     -5.17275494     -4.86473252
  C      2.28415643     -3.83803123     -4.99268436
  H      1.26278556     -6.71741589     -3.53208623
  H      1.97535985     -5.82502457     -5.72907092
  H      2.59551980     -3.45717302     -5.95840075
  H      0.15544215      1.04803229     -7.42651326
  H      1.13484598     -5.21144685     -1.57406711
  H      1.76782277     -2.84042481     -1.79330664
  P     -2.41087021     -3.40569681     -0.23588652
  C     -1.89382176     -4.97202258     -1.02936715
  C     -1.33758838     -6.01246193     -0.28104272
  C     -0.95387616     -7.19641828     -0.89249268
  C     -1.11517292     -7.36055233     -2.26165286
  C     -1.64429066     -6.32451840     -3.01979271
  C     -2.02193434     -5.13746236     -2.41213608
  H     -0.83353968     -8.29350385     -2.73517629
  H     -1.22457033     -5.90936109      0.79205171
  H     -2.44127127     -4.34124639     -3.01650393
  H     -1.76869009     -6.44069938     -4.09024344
  C     -3.84730046     -2.91443150     -1.24366994
  C     -4.02603847     -1.56634772     -1.54713955
  C     -5.08642557     -1.13971816     -2.32911085
  C     -5.99603716     -2.06413336     -2.82185515
  C     -5.83887006     -3.41120893     -2.52282655
  C     -4.77448719     -3.83693842     -1.74367785
  H     -4.65676366     -4.89311114     -1.53025621
  H     -6.82692385     -1.73542170     -3.43500756
  H     -6.54880825     -4.13731657     -2.90138899
  H     -3.31971105     -0.84056312     -1.16369359
  H     -0.53901148     -7.99844905     -0.29302404
  C     -3.12630643     -3.99036525      1.33563019
  C     -2.23885556     -4.23052641      2.39010572
  C     -2.69627163     -4.71145761      3.60678436
  C     -4.05479368     -4.92562511      3.80123568
  C     -4.94858475     -4.65633938      2.77442526
  C     -4.48927824     -4.19955975      1.54761915
  H     -4.41565916     -5.29412651      4.75416066
  H     -6.01087968     -4.81064189      2.92428459
  H     -5.19902220     -4.00600110      0.75184301
  H     -5.20190883     -0.08447747     -2.54884876
  H     -1.99091559     -4.91529712      4.40444298
  H     -1.18035356     -4.03396011      2.25399891
  P     -2.77084009      1.43832190     -4.40426648
  C     -4.41356465      1.52608392     -5.17542191
  C     -5.00320922      2.77890829     -5.37581777
  C     -6.29567833      2.87692043     -5.86503786
  C     -7.02479990      1.72831467     -6.14432198
  C     -6.45638079      0.48022635     -5.93119446
  C     -5.16174290      0.37687790     -5.44575297
  H     -8.03631482      1.80644937     -6.52487826
  H     -4.44135891      3.67912296     -5.15032417
  H     -4.72699100     -0.60297283     -5.28316907
  H     -7.02193440     -0.41971761     -6.14435068
  C     -2.13587788     -0.20681942     -4.87846419
  C     -1.57280319     -1.02649039     -3.90086225
  C     -1.03076926     -2.25896945     -4.22830095
  C     -1.04482902     -2.69513181     -5.54539217
  C     -1.60368836     -1.89106503     -6.53040304
  C     -2.14229276     -0.65656204     -6.20263327
  H     -2.56837427     -0.03350150     -6.98105126
  H     -0.61610784     -3.65671922     -5.80324571
  H     -1.61503867     -2.22493231     -7.56144753
  H     -1.55876619     -0.69450401     -2.86971768
  H     -6.73704385      3.85352594     -6.02560861
  C     -1.69594624      2.51585850     -5.40558237
  C     -0.51132559      2.96483521     -4.81531434
  C      0.38722713      3.74152235     -5.52837179
  C      0.11103411      4.08623477     -6.84492107
  C     -1.06503594      3.65086758     -7.44112152
  C     -1.96357758      2.86898907     -6.72981057
  H      0.80994302      4.69668788     -7.40450958
  H     -1.28577486      3.92126372     -8.46713401
  H     -2.87937247      2.53676884     -7.20511873
  H     -0.58940576     -2.87213919     -3.45126155
  H      1.30160173      4.08131386     -5.05443910
  H     -0.29751392      2.70236955     -3.78408418
  P      3.26722388      4.16886076      0.19430043
  C      3.33574634      5.44208662     -1.10017179
  C      3.18263457      6.80760324     -0.84891895
  C      3.24109696      7.72077204     -1.89086702
  C      3.44889470      7.28529507     -3.19241561
  C      3.59673167      5.92930647     -3.45386666
  C      3.53779182      5.01438074     -2.41543772
  H      3.49112960      8.00185023     -4.00425225
  H      3.00952761      7.15639865      0.16285637
  H      3.64630177      3.95385847     -2.62073760
  H      3.75475775      5.58337592     -4.46905306
  C      4.96582935      4.06794564      0.83574631
  C      5.40553430      2.83573835      1.32754761
  C      6.67964024      2.70058786      1.85659835
  C      7.53578205      3.79303433      1.88903998
  C      7.11628694      5.01697479      1.38536053
  C      5.84041754      5.15696316      0.86086015
  H      5.52465337      6.11367192      0.46040867
  H      8.53296685      3.68810409      2.29991563
  H      7.78638378      5.86865467      1.39965491
  H      4.74393592      1.97612853      1.28218633
  H      3.12120103      8.77797395     -1.68407442
  C      2.29414469      4.94333516      1.52407062
  C      0.91637452      4.70985593      1.53123284
  C      0.10587814      5.28712662      2.49480873
  C      0.66370658      6.09946736      3.47397645
  C      2.03348043      6.32310416      3.48871635
  C      2.84549344      5.75142205      2.52070423
  H      0.03060638      6.56016398      4.22324439
  H      2.47328219      6.94953693      4.25591761
  H      3.91391100      5.93313794      2.54128544
  H      7.00551333      1.73939157      2.23755404
  H     -0.96248869      5.10264802      2.48201122
  H      0.47878985      4.07162230      0.77032803
  P     -4.48845955      0.76618661      1.92892838
  C     -4.99134916      2.42365813      2.48155804
  C     -6.31783536      2.79985489      2.70817759
  C     -6.61858340      4.08605342      3.13012537
  C     -5.60516653      5.01446611      3.32543477
  C     -4.28425639      4.65399525      3.09510100
  C     -3.98105018      3.36851099      2.67776328
  H     -5.84462985      6.02004837      3.65050233
  H     -7.11921684      2.08911565      2.54182100
  H     -2.94796102      3.08830453      2.49778489
  H     -3.48790800      5.37538207      3.23943137
  C     -4.48068715     -0.21555773      3.47134927
  C     -3.43674151     -1.10310247      3.72728584
  C     -3.38478254     -1.81791557      4.91433452
  C     -4.39092998     -1.67015853      5.85800320
  C     -5.44798396     -0.80443660      5.60759133
  C     -5.49186936     -0.07907859      4.42783030
  H     -6.31478509      0.60351170      4.25035973
  H     -4.35079510     -2.22685809      6.78678761
  H     -6.23927394     -0.68776089      6.33879390
  H     -2.65074549     -1.23347955      2.99087513
  H     -7.65144053      4.36538445      3.30263485
  C     -5.93564481      0.12856379      1.03456586
  C     -6.50064576      0.90761561      0.01940956
  C     -7.55969199      0.42355565     -0.73140392
  C     -8.05593252     -0.85234589     -0.49420230
  C     -7.48697850     -1.64221314      0.49507597
  C     -6.43267913     -1.15756589      1.25444962
  H     -8.88329176     -1.23074338     -1.08285015
  H     -7.86682646     -2.64054041      0.67978677
  H     -5.99687430     -1.77944707      2.02855873
  H     -2.55395080     -2.48787217      5.10147156
  H     -7.99742969      1.04248301     -1.50613131
  H     -6.11004820      1.90086975     -0.17481518
  P     -0.17608820      1.13033305      4.57468759
  C     -0.21148459     -0.27356962      5.73410435
  C     -0.62545044     -0.17098150      7.06514903
  C     -0.63351745     -1.28728888      7.88753132
  C     -0.23309846     -2.52272587      7.39727967
  C      0.18194330     -2.63827338      6.07728288
  C      0.19447439     -1.52218833      5.25631800
  H     -0.24670799     -3.39414005      8.04110979
  H     -0.95362849      0.78358763      7.45993149
  H      0.52104317     -1.61839317      4.22625157
  H      0.49580927     -3.59866413      5.68425833
  C     -1.41911709      2.28095867      5.24267355
  C     -1.17110401      3.65311441      5.32350432
  C     -2.15083669      4.51901675      5.78514105
  C     -3.39467437      4.03108837      6.16284093
  C     -3.65641436      2.67025921      6.07542426
  C     -2.67886816      1.80301884      5.61584735
  H     -2.88532105      0.74134794      5.55815924
  H     -4.15822918      4.70984005      6.52373130
  H     -4.62525805      2.27980925      6.36571700
  H     -0.20113402      4.04283266      5.03622488
  H     -0.95812977     -1.19113273      8.91709317
  C      1.39885122      1.96048807      4.96633858
  C      2.24706430      2.34643045      3.92863566
  C      3.45077966      2.97854168      4.20297368
  C      3.82238806      3.23441090      5.51476698
  C      2.98408374      2.85626453      6.55601654
  C      1.78184059      2.22355111      6.28502542
  H      4.76385109      3.72789862      5.72523494
  H      3.26825046      3.05448877      7.58280403
  H      1.13536851      1.92899930      7.10372428
  H     -1.93928504      5.58005620      5.85354223
  H      4.10280228      3.27230291      3.38945103
  H      1.95936215      2.15087973      2.90031199

