#B3LYP/6-31+G(d) OPT FREQ

146, Energy =   -192.72772920 au

0 1
 Co      2.02753636     -0.85090529      0.25304353
 Co     -1.96077036      0.94960553     -0.31179716
 Co     -1.03413585     -1.95478701      0.11055115
 Co     -0.09862009      0.03361029      2.26126181
 Co      0.82598694      2.05784916      0.15038571
 Co      0.21331650     -0.24109954     -2.13425898
 Te     -0.46286691      2.07496560     -1.89995600
 Te     -2.37172954     -0.50913243      1.57812717
 Te     -2.09822487     -0.96194342     -1.81318751
 Te      2.11992729      0.95848359      1.87508588
 Te      0.71500139     -2.23027544      1.75456657
 Te      0.90278623     -2.41245927     -1.24913586
 Te     -1.12064145      2.14228331      1.64694750
 Te      2.25165518      0.91739228     -1.41959227
  P     -2.46155016     -3.47622169      0.56368205
  C     -2.12133932     -5.06413511     -0.40128367
  H     -1.17687845     -5.48910782     -0.04634339
  H     -2.90380470     -5.80492174     -0.21506264
  C     -2.01572566     -4.82049533     -1.90627409
  H     -1.84127702     -5.76267391     -2.42835006
  H     -2.93038965     -4.37031307     -2.29446140
  H     -1.18314447     -4.14650592     -2.11991318
  C     -4.29857155     -3.32532075      0.20272868
  H     -4.39093486     -2.70186840     -0.69263080
  H     -4.71244535     -4.30606891     -0.05058637
  C     -5.14047084     -2.71040292      1.31983615
  H     -6.13708759     -2.47340851      0.94369078
  H     -5.24463704     -3.39858902      2.15861984
  H     -4.67700269     -1.79161797      1.68352353
  C     -2.45219880     -4.15025219      2.31355819
  H     -2.89634431     -3.38722430      2.95974963
  H     -1.40250733     -4.23110446      2.61609958
  C     -3.14630741     -5.48874374      2.56597994
  H     -3.16558715     -5.69020246      3.63859116
  H     -4.17337649     -5.48080526      2.20146074
  H     -2.61209442     -6.30312608      2.07690121
  P      4.06629625     -1.50823833      0.16506158
  C      5.21526424     -1.02044084     -1.23491837
  H      5.27271573      0.07236890     -1.25196255
  H      6.22582319     -1.40271651     -1.06559695
  C      4.72628186     -1.50414248     -2.59848665
  H      5.37754885     -1.12417625     -3.38723976
  H      4.71835911     -2.59294124     -2.65029471
  H      3.71521151     -1.13926149     -2.78137559
  C      4.36479045     -3.36430262      0.13582069
  H      3.80384386     -3.76449942     -0.71530308
  H      5.42175052     -3.58430733     -0.04232452
  C      3.90260240     -4.08800950      1.39931307
  H      3.99585196     -5.16709339      1.26573282
  H      4.50058845     -3.79338893      2.26220777
  H      2.85648119     -3.85340653      1.61218459
  C      5.10875733     -0.97595726      1.63336993
  H      4.56937862     -1.28288400      2.53531064
  H      5.10138864      0.11916076      1.64285345
  C      6.55206463     -1.47109670      1.72812430
  H      6.99760227     -1.10519384      2.65498009
  H      6.59764968     -2.55980707      1.73600452
  H      7.15215546     -1.10457219      0.89565543
  P      0.44633256     -0.61521389     -4.23688053
  C     -0.91635391      0.04211469     -5.35390649
  H     -1.17045797      1.04522888     -4.99685548
  H     -0.54755303      0.15264106     -6.37767667
  C     -2.18514108     -0.80774848     -5.38341523
  H     -2.97913433     -0.27155396     -5.90584207
  H     -2.01065240     -1.75420391     -5.89583934
  H     -2.52113803     -1.02103170     -4.36482430
  C      0.63125694     -2.32377791     -4.99126757
  H     -0.22585388     -2.92060814     -4.66306687
  H      0.57856433     -2.26185816     -6.08240994
  C      1.90706805     -3.05743377     -4.58499270
  H      1.91265556     -4.06110614     -5.01337202
  H      2.79653443     -2.52854747     -4.92725326
  H      1.95163678     -3.14600543     -3.49651917
  C      1.89872298      0.31179728     -4.99211596
  H      2.77908452      0.09559619     -4.37976054
  H      1.69114360      1.37788537     -4.84669152
  C      2.24854826      0.06974678     -6.46086974
  H      3.08372753      0.71416644     -6.74141743
  H      2.54649812     -0.96436314     -6.63045062
  H      1.40864726      0.29946152     -7.11623191
  P     -3.47100035      2.15989959     -1.23590756
  C     -5.18628802      1.78303443     -0.53571803
  H     -5.17417986      2.00139682      0.53696417
  H     -5.94790059      2.42075820     -0.99197606
  C     -5.57695816      0.32111512     -0.73867494
  H     -6.52354323      0.10845792     -0.23944623
  H     -5.68267327      0.08916395     -1.79901875
  H     -4.80786196     -0.33064810     -0.32209958
  C     -3.91388085      2.09437880     -3.06008516
  H     -3.72880275      1.06672431     -3.38853621
  H     -4.98474301      2.27962496     -3.18809824
  C     -3.14082524      3.04475220     -3.97237717
  H     -3.33318628      2.79105003     -5.01624908
  H     -3.44038085      4.07998469     -3.80892362
  H     -2.06897950      2.96277222     -3.78437016
  C     -3.39666051      4.00486105     -0.90741400
  H     -2.57863442      4.40540909     -1.51211477
  H     -3.09429403      4.12951184      0.13808557
  C     -4.65560388      4.83470158     -1.16014959
  H     -4.41546467      5.89492509     -1.06110188
  H     -5.04969403      4.66602126     -2.16219125
  H     -5.43411973      4.59449291     -0.43638118
  P      1.14959577      4.07162668      0.80621062
  C     -0.00025906      5.46276823      0.28381572
  H     -1.00687428      5.19580662      0.62033580
  H      0.26923641      6.39529068      0.78767227
  C     -0.02575838      5.71033001     -1.22387171
  H     -0.83952774      6.39221149     -1.47626276
  H      0.91153791      6.15341893     -1.56175021
  H     -0.17798377      4.77248995     -1.76349965
  C      2.78248156      4.78638083      0.18362392
  H      2.74020984      4.81442078     -0.90972373
  H      2.91746704      5.81654045      0.52438726
  C      3.98960877      3.94474688      0.59394780
  H      4.90632172      4.38279793      0.19558473
  H      4.07617564      3.88349895      1.67929956
  H      3.89066966      2.93025913      0.20188541
  C      1.26188836      4.43838652      2.63968048
  H      1.87460413      3.64798308      3.08205276
  H      0.25353628      4.31049411      3.04627987
  C      1.81642026      5.78967973      3.08950806
  H      1.74882293      5.85875927      4.17678880
  H      2.86352593      5.89944711      2.80834094
  H      1.25295160      6.61886033      2.66176084
  P      0.54501162     -0.53672866      4.23387266
  C     -0.51081333     -1.80269650      5.14735564
  H     -0.41486948     -2.75632721      4.61918228
  H     -0.14462707     -1.95285873      6.16643444
  C     -1.98665400     -1.41341863      5.21279467
  H     -2.57186122     -2.23187742      5.63525067
  H     -2.12710732     -0.52913353      5.83581520
  H     -2.36960531     -1.19259107      4.21312240
  C      0.43552066      0.87381868      5.49547052
  H     -0.47167226      1.44069879      5.26235761
  H      0.31361257      0.48065642      6.50871357
  C      1.62974268      1.82561166      5.46215586
  H      1.37388941      2.77055725      5.94404999
  H      2.48746214      1.39582743      5.97956750
  H      1.92538335      2.02867544      4.43050254
  C      2.25591286     -1.20295591      4.61238075
  H      2.97271014     -0.43453112      4.30887585
  H      2.42484491     -2.05911307      3.95348187
  C      2.55794246     -1.62767416      6.04931816
  H      3.62127738     -1.85810234      6.13784501
  H      2.32096416     -0.83807284      6.76187534
  H      1.99508781     -2.52042197      6.32139396

