#B3LYP/6-31+G(d) OPT FREQ

146, Energy =   -192.73156785 au

0 1
 Co     -0.22886991     -2.16118721      0.15771415
 Co      0.68411214      2.16980889     -0.14145488
 Co     -2.02313065      0.32986859     -0.34274331
 Co     -0.14683782      0.23000080      2.07402357
 Co      2.28441410     -0.42882708     -0.01799285
 Co      0.23675554     -0.03766309     -2.31936416
 Te      2.21877175      1.25535630     -1.78111600
 Te     -1.37172711      2.14686311      1.14799861
 Te     -1.03399626      1.99576784     -1.81329422
 Te      1.40608680     -1.63499048      1.90517645
 Te     -2.01420208     -1.23612074      1.51795062
 Te     -1.54014490     -1.60554877     -1.78453353
 Te      2.02233721      1.25970418      1.69904399
 Te      1.40890523     -2.03590889     -1.64938299
  P      1.64809844      3.99449937      0.42583334
  C      1.01227727      5.46093221     -0.58673328
  H     -0.03465042      5.63533600     -0.31819684
  H      1.56811842      6.37085274     -0.34477632
  C      1.10041708      5.21071546     -2.09139569
  H      0.70316997      6.06687980     -2.63900537
  H      2.13403210      5.04921960     -2.40032396
  H      0.51760174      4.32676798     -2.36100671
  C      3.48994944      4.26891782      0.17195503
  H      3.76693946      3.68894244     -0.71529154
  H      3.68339766      5.32050143     -0.06072424
  C      4.39394517      3.84766479      1.32879279
  H      5.43694308      3.86611010      1.00789054
  H      4.28284422      4.51942919      2.18006177
  H      4.14666319      2.83664317      1.65618893
  C      1.35720306      4.65404683      2.15585784
  H      1.92013171      4.01656145      2.84380356
  H      0.29861111      4.48740783      2.38429189
  C      1.70030474      6.11809367      2.43031866
  H      1.59988009      6.31921313      3.49848094
  H      2.72355929      6.34871771      2.13395399
  H      1.02540096      6.78537267      1.89460908
  P     -0.22687552      0.53847257     -4.33673888
  C     -1.95061316      0.91907665     -4.97699285
  H     -2.35617728      1.72602195     -4.36044881
  H     -1.89352198      1.29385042     -6.00372101
  C     -2.91679217     -0.26428557     -4.94284107
  H     -3.93236451      0.07946343     -5.14680707
  H     -2.64997615     -1.00912497     -5.69324255
  H     -2.90074128     -0.74652516     -3.96387387
  C      0.24887325     -0.74402563     -5.64185210
  H     -0.41614600     -1.60392392     -5.51370870
  H      0.07932663     -0.35714127     -6.65035301
  C      1.68899520     -1.23089567     -5.50873961
  H      1.90238075     -1.98969251     -6.26342250
  H      2.39505990     -0.40927217     -5.63437398
  H      1.84114057     -1.67299550     -4.52124043
  C      0.65867593      2.07849794     -4.94290240
  H      1.65476741      2.07834263     -4.48775011
  H      0.12573621      2.93024309     -4.50688810
  C      0.79907184      2.29659357     -6.44871775
  H      1.24314194      3.27709784     -6.63017603
  H      1.44789368      1.54330902     -6.89505044
  H     -0.16836783      2.26384096     -6.95022450
  P     -4.16189089      0.19321466     -0.44981703
  C     -5.09465697     -1.43389147     -0.45671521
  H     -4.66148630     -2.05425275      0.33431759
  H     -6.14292348     -1.26375136     -0.19364510
  C     -5.04445844     -2.20092262     -1.77604454
  H     -5.49509771     -3.18677066     -1.64982835
  H     -5.58591545     -1.66968977     -2.55927309
  H     -4.00901199     -2.33151261     -2.09841881
  C     -5.08061640      1.07593680     -1.83777904
  H     -4.79519212      0.60162536     -2.78155072
  H     -6.16181791      0.94873546     -1.73247481
  C     -4.74276491      2.56301404     -1.92547202
  H     -5.22923749      3.00729776     -2.79537646
  H     -5.07275598      3.09614970     -1.03330080
  H     -3.66253149      2.69845296     -2.02623931
  C     -4.95336846      0.96614749      1.06985246
  H     -4.41262872      1.89454199      1.28114225
  H     -4.73362371      0.28942693      1.90260618
  C     -6.45317960      1.26049028      1.05559003
  H     -6.75395398      1.63317110      2.03652377
  H     -6.69978566      2.02054068      0.31492106
  H     -7.03560974      0.36470706      0.84004509
  P     -0.98080148      0.50299798      4.02866192
  C     -2.78030929      0.91076494      4.36206918
  H     -3.37697651      0.30463962      3.67342578
  H     -3.05204469      0.60052260      5.37529831
  C     -3.15516883      2.38109067      4.18788251
  H     -4.24036523      2.49265620      4.21674825
  H     -2.72305336      2.99223781      4.98063070
  H     -2.79339575      2.75224838      3.22621571
  C     -0.16725473      1.75920149      5.17414113
  H     -0.29806092      2.74854316      4.72400258
  H     -0.66674039      1.78109390      6.14692056
  C      1.32809708      1.51521970      5.36982981
  H      1.76244289      2.31653453      5.96991568
  H      1.51138826      0.56590872      5.87397701
  H      1.83582423      1.49371000      4.40180541
  C     -0.84751743     -1.07908474      5.03994137
  H      0.13561975     -1.51626000      4.83487041
  H     -1.58245466     -1.77146232      4.61527225
  C     -1.05136319     -1.00699014      6.55313304
  H     -1.02020402     -2.01598627      6.96846345
  H     -0.26672974     -0.42025444      7.02970555
  H     -2.01538359     -0.56565677      6.80628532
  P     -0.21617541     -4.10497618      1.06632495
  C      1.28939189     -5.22529794      0.99456864
  H      2.09202530     -4.73428853      1.55184886
  H      1.08267288     -6.17490277      1.49684463
  C      1.77252442     -5.51677337     -0.42525274
  H      2.72911962     -6.04090831     -0.39389638
  H      1.05453814     -6.13946751     -0.96026701
  H      1.90245130     -4.58702963     -0.98484437
  C     -1.48069813     -5.29034772      0.31640706
  H     -1.22312146     -5.42806883     -0.73851800
  H     -1.42575818     -6.27469065      0.78935126
  C     -2.90931381     -4.75777413      0.39756003
  H     -3.59877624     -5.44856471     -0.09043500
  H     -3.22283050     -4.62744273      1.43384963
  H     -2.97444940     -3.79038517     -0.10309443
  C     -0.61344759     -4.24746377      2.89311764
  H     -1.46127121     -3.58319659      3.08894059
  H      0.24024406     -3.82289666      3.43091532
  C     -0.92719992     -5.62718292      3.47035062
  H     -1.07239994     -5.53846790      4.54861660
  H     -1.83949505     -6.03845960      3.03908124
  H     -0.11231674     -6.32945639      3.29489463
  P      4.30752454     -1.00972946     -0.39236947
  C      5.22865035     -0.62963304     -1.97861277
  H      5.33645406      0.45714546     -2.05017181
  H      6.23348116     -1.06030818     -1.93870597
  C      4.52593906     -1.12840632     -3.23766709
  H      5.15855594     -0.96494150     -4.11167642
  H      4.29253264     -2.19095191     -3.16657506
  H      3.59629204     -0.57605207     -3.37459680
  C      4.81396067     -2.80975573     -0.19224525
  H      4.15733571     -3.39951439     -0.83942910
  H      5.83727526     -2.96895553     -0.54513233
  C      4.68860913     -3.32695042      1.23998998
  H      4.78302725     -4.41393384      1.25510621
  H      5.46592179     -2.90498145      1.87762765
  H      3.71758886     -3.05529764      1.66159820
  C      5.46573549     -0.16122445      0.82540254
  H      5.11968871     -0.41385150      1.83300639
  H      5.30781097      0.91665948      0.71464357
  C      6.96406509     -0.44977774      0.72460361
  H      7.48439727      0.05563098      1.54031210
  H      7.17011319     -1.51718350      0.79939282
  H      7.37193542     -0.08291885     -0.21698224

