#B3LYP/6-31+G(d) OPT FREQ

146, Energy =   -192.73077873 au

0 1
 Co      0.93287857     -2.20483798     -0.45635386
 Co     -0.58484810      1.95112089      0.17871966
 Co     -1.83131679     -0.66378919     -1.21865792
 Co     -0.99906681     -0.99408843      1.64381559
 Co      1.80796136      0.28346230      1.03236059
 Co      0.84613052      0.50341406     -2.07806562
 Te      1.74970448      2.14796057     -0.54308476
 Te     -2.55246774      0.63698752      0.71672978
 Te     -1.37202565      1.53878243     -2.08989791
 Te      1.24195788     -1.90368804      1.92955024
 Te     -1.36194534     -2.74308032     -0.03102109
 Te     -0.09326695     -1.68930671     -2.58838701
 Te     -0.04522546      1.10328992      2.39526450
 Te      2.70663366     -0.63311165     -1.04379611
  P     -3.82641387     -1.42659142     -1.39191507
  C     -4.07061376     -3.01646784     -2.37037641
  H     -3.66426319     -3.83756341     -1.77190774
  H     -5.13598340     -3.21034584     -2.52312830
  C     -3.37489062     -3.00843880     -3.72979423
  H     -3.49592897     -3.97726626     -4.21710973
  H     -3.79474527     -2.23907630     -4.37925002
  H     -2.30636983     -2.81081969     -3.60969526
  C     -5.10235460     -0.36632564     -2.29627835
  H     -4.84503524     -0.35583530     -3.36004994
  H     -6.09590082     -0.81641696     -2.21189215
  C     -5.15397737      1.07430001     -1.79612037
  H     -5.91831843      1.63565959     -2.33589344
  H     -5.37885730      1.11278478     -0.72953966
  H     -4.18886958      1.55812839     -1.95830034
  C     -4.79773243     -1.83244826      0.15792142
  H     -5.10592064     -0.88059218      0.59982119
  H     -4.10189321     -2.29009586      0.86677615
  C     -6.02159062     -2.73816902      0.02666446
  H     -6.53253891     -2.79077628      0.98983691
  H     -6.72632593     -2.35474222     -0.71149831
  H     -5.73213773     -3.74926114     -0.25905146
  P      2.56116047     -3.59439321     -0.45031321
  C      3.40140940     -4.00118639     -2.08688123
  H      3.95310481     -3.10852828     -2.39777164
  H      4.13064133     -4.80598381     -1.95350562
  C      2.42873409     -4.39157651     -3.19795540
  H      2.96117779     -4.48402372     -4.14595036
  H      1.94675018     -5.34488589     -2.97756608
  H      1.65043552     -3.63146591     -3.30898804
  C      2.04994815     -5.34981368      0.03040365
  H      1.33937588     -5.70306192     -0.72362722
  H      2.90877873     -6.02531803     -0.00235150
  C      1.38041700     -5.43548382      1.39926753
  H      1.14736015     -6.47376407      1.64134860
  H      2.02593274     -5.02986084      2.17894720
  H      0.45208345     -4.86235183      1.39732640
  C      4.10492085     -3.32440549      0.57950426
  H      3.79815378     -2.87225481      1.52720492
  H      4.70329260     -2.57312421      0.05567423
  C      4.98790572     -4.53537354      0.87709220
  H      5.89470537     -4.20025492      1.38408342
  H      4.47781619     -5.24340787      1.52989543
  H      5.28121510     -5.05205915     -0.03697546
  P     -1.04020291      4.03674050      0.45433544
  C     -2.86777636      4.43536580      0.25368878
  H     -3.42594525      3.64465701      0.76699029
  H     -3.11910334      5.37973429      0.74395369
  C     -3.33399300      4.50161670     -1.19988947
  H     -4.42425813      4.51923930     -1.24104428
  H     -2.95474426      5.39832577     -1.69068112
  H     -2.97919936      3.63042132     -1.75613958
  C     -0.31596625      5.41062359     -0.60043793
  H     -0.45840621      5.12736104     -1.64855078
  H     -0.86696178      6.34292578     -0.44430526
  C      1.17304364      5.65610065     -0.36746885
  H      1.54935380      6.38293869     -1.08918014
  H      1.35954554      6.03520967      0.63753481
  H      1.72951510      4.72321384     -0.49199013
  C     -0.76303979      4.69984378      2.19045529
  H      0.29184732      4.53979458      2.43188435
  H     -1.32527020      4.04712471      2.86704633
  C     -1.11404463      6.15723303      2.49275899
  H     -0.87458529      6.37458291      3.53528055
  H     -0.54415568      6.84047381      1.86388031
  H     -2.17553159      6.35184841      2.34188941
  P      0.83106405      1.31928215     -4.06339161
  C     -0.52271278      1.25732815     -5.35920764
  H     -1.26456485      2.01791604     -5.10016841
  H     -0.10559296      1.52187807     -6.33571061
  C     -1.23314231     -0.08865340     -5.47910648
  H     -1.92187971     -0.07316515     -6.32575492
  H     -0.51868406     -0.89937564     -5.62356305
  H     -1.80217726     -0.29460728     -4.57265607
  C      2.25544799      0.69207825     -5.14470192
  H      2.06803811     -0.36773967     -5.34650660
  H      2.26839806      1.20345209     -6.11120634
  C      3.62035185      0.83155903     -4.47487644
  H      4.39177005      0.36841939     -5.09219151
  H      3.87742712      1.88140247     -4.32805561
  H      3.61608890      0.33879984     -3.49840928
  C      1.14878140      3.16997196     -4.05599162
  H      1.98039450      3.35595538     -3.36845278
  H      0.26743712      3.63278188     -3.59915848
  C      1.43734837      3.86188098     -5.38766572
  H      1.57209802      4.93140030     -5.21567182
  H      2.34728693      3.47490711     -5.84564251
  H      0.61261703      3.73143919     -6.08812076
  P      3.18789563      1.34710957      2.27892234
  C      4.88116748      1.71503780      1.54081404
  H      4.73958520      2.43073814      0.72458801
  H      5.52456004      2.18882563      2.28745651
  C      5.59502257      0.48000093      0.99505995
  H      6.54789122      0.76706431      0.54742418
  H      5.78867834     -0.24375396      1.78783813
  H      4.98364216     -0.00315226      0.22903484
  C      3.76100542      0.59563992      3.90807330
  H      4.41144816     -0.25475609      3.68052255
  H      4.36206460      1.31523944      4.47151380
  C      2.60896427      0.10163591      4.77832663
  H      2.98837564     -0.29156818      5.72283210
  H      1.90275418      0.90517766      4.99108760
  H      2.07467325     -0.69764655      4.25980133
  C      2.71591042      3.06900037      2.84923573
  H      1.90822596      2.95027449      3.57760035
  H      2.28025159      3.57820697      1.98403933
  C      3.79728179      3.96916948      3.44618343
  H      3.33531783      4.88849457      3.81080052
  H      4.30293317      3.48814841      4.28354609
  H      4.54182900      4.23876900      2.69746152
  P     -1.79621240     -1.94235123      3.39866196
  C     -1.73674251     -3.80261684      3.64124650
  H     -0.70448254     -4.12117479      3.46319286
  H     -1.97582982     -4.05404822      4.67878363
  C     -2.66369001     -4.59276662      2.72069288
  H     -2.49440413     -5.66291405      2.85055590
  H     -3.71024011     -4.37739720      2.93836316
  H     -2.46669335     -4.33513274      1.67699351
  C     -3.57064834     -1.62230957      3.93845575
  H     -4.23713109     -2.04657075      3.18145616
  H     -3.78977765     -2.13840326      4.87749678
  C     -3.88885981     -0.13530153      4.08137259
  H     -4.94165692      0.00102607      4.33382691
  H     -3.28150272      0.32503388      4.86139474
  H     -3.68918531      0.38264647      3.13912342
  C     -0.84506526     -1.43185354      4.93597177
  H     -0.68681285     -0.34975134      4.87500689
  H      0.14604392     -1.88896291      4.84368364
  C     -1.42022825     -1.77188912      6.31058917
  H     -0.70556278     -1.47508095      7.08048206
  H     -2.35299624     -1.23856219      6.49154533
  H     -1.60570290     -2.84094890      6.41443161

