#B3LYP/6-31+G(d) OPT FREQ

146, Energy =   -192.73090028 au

0 1
 Co     -1.19363409     -1.94271228     -0.97760317
 Co      1.10454188      1.30928383      0.93207970
 Co     -2.10761362      0.66474060      0.31282195
 Co     -0.17516110     -1.31554346      1.82811240
 Co      1.77388202     -1.14275156     -0.75643130
 Co     -0.08380930      1.01996871     -1.92091324
 Te      2.22982474      1.19561973     -1.22844712
 Te     -0.85965698      0.97295595      2.35449239
 Te     -0.68153310      2.58434978     -0.12843864
 Te      0.62462072     -3.00269574      0.27644472
 Te     -2.45807934     -1.61813450      1.08190273
 Te     -2.26389507     -0.05977717     -2.02837176
 Te      2.18381459     -0.79497533      1.60487101
 Te      0.33029686     -1.23110095     -2.74035776
  P      3.67933941     -1.47723575     -1.67411077
  C      4.13725053     -0.91592844     -3.40263288
  H      3.89250968      0.14822303     -3.47263040
  H      5.21684518     -1.00942019     -3.55338714
  C      3.42075045     -1.66969753     -4.52158037
  H      3.61075178     -1.18202306     -5.47913739
  H      3.76877162     -2.70117365     -4.58355144
  H      2.34258127     -1.67855142     -4.34425607
  C      4.23902037     -3.27857975     -1.78785580
  H      3.55586488     -3.79773095     -2.46759171
  H      5.23962232     -3.35131365     -2.22304090
  C      4.20902793     -3.99376564     -0.43854569
  H      4.47905794     -5.04359090     -0.56383737
  H      4.90573596     -3.53782429      0.26577805
  H      3.20408466     -3.94417556     -0.01003266
  C      5.09465273     -0.70869608     -0.70730474
  H      4.88653717     -0.87452612      0.35528820
  H      5.02082387      0.37240503     -0.86541862
  C      6.52254485     -1.16130662     -1.00912057
  H      7.21984673     -0.56382239     -0.41886058
  H      6.66929024     -2.20882612     -0.74750589
  H      6.76966851     -1.02873605     -2.06253412
  P     -0.03928246     -1.58129549      3.94795615
  C      0.81905694     -3.18250464      4.45861753
  H      1.87443598     -3.10177166      4.17848746
  H      0.77640111     -3.31417919      5.54316261
  C      0.22260712     -4.41885216      3.78900414
  H      0.76945796     -5.31206066      4.09529226
  H     -0.82626860     -4.54294074      4.06159042
  H      0.28965808     -4.32752974      2.70238573
  C     -1.62440292     -1.77799500      4.94523147
  H     -2.30647149     -2.38144641      4.33720356
  H     -1.43398857     -2.33882902      5.86517750
  C     -2.31932687     -0.46373801      5.29582694
  H     -3.32953316     -0.66005406      5.65874331
  H     -1.77210766      0.07314250      6.07094573
  H     -2.38186563      0.18197044      4.41767666
  C      0.92334626     -0.37086850      5.00383486
  H      0.37812848      0.57696817      4.98310177
  H      1.87601498     -0.19038315      4.49615400
  C      1.20492867     -0.75091202      6.45728990
  H      1.65871731      0.09968539      6.96926883
  H      0.28909327     -1.01712018      6.98486327
  H      1.89718868     -1.59041853      6.51723969
  P     -4.14542627      1.33023891      0.27500002
  C     -4.77736231      1.65955957      2.02034339
  H     -4.00788110      2.23491346      2.54579223
  H     -5.68537732      2.26803257      2.00573149
  C     -5.05893565      0.37810887      2.80497043
  H     -5.18125973      0.60611144      3.86493908
  H     -5.97037917     -0.10230676      2.44784348
  H     -4.23583072     -0.33250220      2.69196737
  C     -5.61866967      0.36046017     -0.36418528
  H     -5.51745566     -0.66222298      0.01189620
  H     -6.54199647      0.76441534      0.06264365
  C     -5.75464044      0.30639765     -1.88401547
  H     -6.55209741     -0.38536351     -2.16055116
  H     -5.98923340      1.28861112     -2.29461171
  H     -4.82126174     -0.03881763     -2.33367777
  C     -4.42508144      3.00955813     -0.51725982
  H     -4.22346321      2.89083502     -1.58605578
  H     -3.64402845      3.67532555     -0.13436443
  C     -5.78590154      3.68610711     -0.34880375
  H     -5.80951628      4.60009300     -0.94508039
  H     -6.59610123      3.03950118     -0.68469583
  H     -5.96631725      3.95598785      0.69146523
  P      2.40959996      2.69085466      1.94614159
  C      2.58090374      4.35412609      1.08242208
  H      1.59643150      4.60215576      0.67054089
  H      2.83888707      5.14254607      1.79458729
  C      3.60638736      4.36366818     -0.05044715
  H      3.48789941      5.26569622     -0.65295839
  H      4.62307318      4.34225714      0.34269028
  H      3.46786972      3.49310326     -0.69684197
  C      4.21969808      2.36574293      2.32244100
  H      4.69728687      2.05363134      1.38800988
  H      4.71193274      3.29003872      2.63963164
  C      4.46070446      1.28036437      3.36900571
  H      5.53042850      1.08825339      3.46715718
  H      4.06917732      1.57354864      4.34328004
  H      3.96843191      0.35334192      3.06399642
  C      1.76998163      3.26661250      3.61830226
  H      1.61695401      2.37199207      4.22962821
  H      0.77168878      3.68263463      3.44374340
  C      2.59550544      4.27147194      4.42287366
  H      2.07838868      4.49336352      5.35818818
  H      3.57930231      3.87119389      4.66547530
  H      2.72721388      5.20653703      3.87893483
  P     -0.17596782      2.79134828     -3.13116031
  C     -1.77366820      3.74324908     -3.39226760
  H     -2.13630189      4.04350924     -2.40445627
  H     -1.58341286      4.66015956     -3.95773676
  C     -2.86549469      2.94710712     -4.10595430
  H     -3.80956669      3.49324175     -4.06859998
  H     -2.60575977      2.78096292     -5.15191052
  H     -3.00578101      1.97475082     -3.62819238
  C      0.27949895      2.47785303     -4.93700793
  H     -0.47220606      1.80459458     -5.36059150
  H      0.24796708      3.40102332     -5.52186916
  C      1.64927391      1.81773677     -5.08005408
  H      1.86082758      1.60835469     -6.12980635
  H      2.43903250      2.45926514     -4.68750141
  H      1.66534330      0.87578918     -4.52804304
  C      0.96354996      4.21778838     -2.70586756
  H      1.93525409      3.78233303     -2.45569448
  H      0.57732505      4.66004688     -1.78185570
  C      1.17772541      5.32476486     -3.73743475
  H      1.80815804      6.10159587     -3.30076571
  H      1.67882532      4.94333456     -4.62676641
  H      0.23538294      5.78238871     -4.03844347
  P     -1.95399705     -3.94634740     -1.00271639
  C     -1.05817477     -5.17810357     -2.11380624
  H     -0.07550492     -5.36590221     -1.66991728
  H     -1.59296724     -6.13136065     -2.14366776
  C     -0.87165446     -4.67846797     -3.54509585
  H     -0.25324299     -5.37906159     -4.10854352
  H     -1.83356541     -4.58094160     -4.05020748
  H     -0.38136844     -3.70120782     -3.54941886
  C     -3.67489349     -4.06541601     -1.78184224
  H     -3.66758875     -3.42641361     -2.67092951
  H     -3.87416571     -5.08507188     -2.12364192
  C     -4.80670946     -3.60846226     -0.86438922
  H     -5.72334513     -3.46635329     -1.43913075
  H     -4.99877087     -4.34368586     -0.08279726
  H     -4.54653090     -2.66483586     -0.38034120
  C     -2.16945706     -5.00803000      0.52565474
  H     -2.78110283     -4.43769035      1.23074515
  H     -1.18330315     -5.11203532      0.98625334
  C     -2.77449551     -6.40102564      0.35348569
  H     -2.90926074     -6.85424635      1.33739634
  H     -3.74664519     -6.36003452     -0.13675713
  H     -2.11920827     -7.04794801     -0.22942467

