#B3LYP/6-31+G(d) OPT FREQ

146, Energy =   -192.72834372 au

0 1
 Co      2.07232948     -0.80442434      0.23091485
 Co     -1.96454605      0.96826415     -0.26849910
 Co     -0.98630006     -1.93417313      0.18558172
 Co     -0.06496980      0.08347328      2.28835500
 Co      0.85239131      2.02048439      0.05615666
 Co      0.15514720     -0.32973271     -2.14075291
 Te     -0.50191445      1.99715612     -1.95097246
 Te     -2.33774888     -0.48316555      1.63075477
 Te     -2.15759812     -0.97312407     -1.70729086
 Te      2.13187662      1.00888905      1.84907760
 Te      0.80639105     -2.16214594      1.78923171
 Te      0.94537732     -2.44041460     -1.18337893
 Te     -1.03086192      2.19428129      1.62017740
 Te      2.21751787      0.85611748     -1.55838146
  P     -3.42910794      2.30461533     -1.08436675
  C     -5.07746722      2.18245474     -0.16578838
  H     -4.92770984      2.54212532      0.85734385
  H     -5.83290300      2.82161122     -0.63055132
  C     -5.60226635      0.74925239     -0.11354509
  H     -6.52396306      0.70515700      0.46876256
  H     -5.80556381      0.37086617     -1.11612604
  H     -4.86216141      0.09951985      0.35777314
  C     -4.08779990      2.11861279     -2.83477334
  H     -4.07100743      1.04719949     -3.06056469
  H     -5.13411452      2.43633637     -2.87616046
  C     -3.30738660      2.85615723     -3.92081565
  H     -3.64684212      2.53025780     -4.90546831
  H     -3.45099323      3.93412130     -3.84558259
  H     -2.24019742      2.64628367     -3.83112376
  C     -3.13788066      4.15049196     -0.95232610
  H     -2.35266757      4.40543262     -1.66908319
  H     -2.71753462      4.33501208      0.04231953
  C     -4.33048274      5.08272131     -1.16572273
  H     -3.98116899      6.11666999     -1.18686316
  H     -4.83531127      4.87348074     -2.10875860
  H     -5.05351005      4.98574494     -0.35612474
  P      0.31740337     -0.59735497      4.29247705
  C     -0.57699733     -2.07294455      5.03607009
  H     -0.33126526     -2.94426357      4.42163135
  H     -0.21031031     -2.27435208      6.04707893
  C     -2.09594189     -1.91210730      5.08579525
  H     -2.56408193     -2.86418887      5.34135118
  H     -2.38609431     -1.17455312      5.83481963
  H     -2.47903276     -1.58433912      4.11636875
  C     -0.12580955      0.68252803      5.61306698
  H     -1.21114496      0.82179402      5.59214058
  H      0.13048378      0.32408205      6.61348418
  C      0.53488272      2.03493379      5.35922147
  H      0.24863521      2.74843524      6.13361166
  H      1.62204960      1.94784799      5.35110775
  H      0.21308218      2.42583185      4.39178496
  C      2.07783305     -1.04091818      4.76645524
  H      2.73712263     -0.32941626      4.25853201
  H      2.28169567     -2.01962712      4.32062017
  C      2.44713130     -1.08346939      6.24849172
  H      3.46823782     -1.45517074      6.35243869
  H      2.40225336     -0.09004429      6.69422143
  H      1.78611435     -1.74622470      6.80732934
  P      4.13601059     -1.38622252      0.19498897
  C      5.30627781     -0.89049657     -1.18522495
  H      5.34627351      0.20288540     -1.21408128
  H      6.31863371     -1.25248487     -0.98503376
  C      4.86374226     -1.39944711     -2.55568734
  H      5.54184117     -1.03224951     -3.32771427
  H      4.85759209     -2.48903944     -2.58904694
  H      3.85954901     -1.03752970     -2.78011038
  C      4.47120895     -3.23700745      0.18923738
  H      3.91110837     -3.65982689     -0.65150702
  H      5.53067620     -3.43908595      0.00500302
  C      4.03443465     -3.95291901      1.46622257
  H      4.13710803     -5.03221625      1.34149681
  H      4.64208256     -3.64421581      2.31725572
  H      2.98899934     -3.72741322      1.69212517
  C      5.13409371     -0.82415897      1.68230433
  H      4.59783713     -1.16909781      2.57251918
  H      5.07197870      0.26872475      1.70664890
  C      6.59902754     -1.24809609      1.78781140
  H      7.00513655     -0.90503983      2.74115129
  H      6.70370014     -2.33182423      1.74375640
  H      7.19469589     -0.80876484      0.98809676
  P      0.34057184     -0.79946225     -4.23148877
  C     -1.02919674     -0.17098825     -5.35632325
  H     -1.22806100      0.86883406     -5.07698810
  H     -0.69246313     -0.16360222     -6.39681454
  C     -2.33256182     -0.96236057     -5.27367757
  H     -3.11778065     -0.44509982     -5.82745213
  H     -2.21076347     -1.96115672     -5.69385881
  H     -2.64930823     -1.06202867     -4.23159255
  C      0.50562174     -2.53710463     -4.92098619
  H     -0.33965674     -3.12288739     -4.54612262
  H      0.42267200     -2.52161998     -6.01189419
  C      1.79704879     -3.24572958     -4.51858399
  H      1.79053970     -4.27229992     -4.88853940
  H      2.67253878     -2.73607712     -4.92108693
  H      1.88109808     -3.27148012     -3.42889821
  C      1.79930742      0.07009210     -5.03894631
  H      2.69125306     -0.19595394     -4.46391320
  H      1.65112387      1.14311857     -4.87495669
  C      2.08096154     -0.17155411     -6.52245390
  H      2.96482307      0.39776586     -6.81607008
  H      2.27417517     -1.22479712     -6.72315158
  H      1.24771901      0.15249767     -7.14551383
  P     -2.46433108     -3.45664090      0.40136484
  C     -2.20261747     -4.93379104     -0.74288483
  H     -1.28535531     -5.44626258     -0.43500367
  H     -3.02579616     -5.64564868     -0.63472261
  C     -2.07420334     -4.54675864     -2.21468528
  H     -1.99695506     -5.44236947     -2.83340796
  H     -2.93607573     -3.96528298     -2.54373983
  H     -1.17696762     -3.94372708     -2.36455447
  C     -4.30447694     -3.20488437      0.12855519
  H     -4.40260710     -2.46794436     -0.67515677
  H     -4.75881564     -4.13230868     -0.23320131
  C     -5.08898339     -2.71481911      1.34463354
  H     -6.08537274     -2.39456115      1.03547533
  H     -5.19748383     -3.50356225      2.08906043
  H     -4.58002055     -1.86812528      1.80876508
  C     -2.43281015     -4.34753557      2.05785868
  H     -2.83568041     -3.65795400      2.80544864
  H     -1.37936831     -4.49574084      2.31934952
  C     -3.16417366     -5.68585908      2.16760846
  H     -3.16589437     -6.01383603      3.20875490
  H     -4.19832376     -5.60370917      1.83368373
  H     -2.66803178     -6.45129266      1.57121736
  P      1.40971748      3.96684739      0.73780166
  C      0.40182596      5.45374570      0.16855040
  H     -0.61696748      5.31844138      0.54552037
  H      0.78839285      6.37601710      0.61145577
  C      0.35317878      5.61765305     -1.34955824
  H     -0.39286333      6.36609232     -1.62166293
  H      1.32036689      5.93809638     -1.73815802
  H      0.08610913      4.67200297     -1.82840634
  C      3.10492983      4.52735580      0.12773666
  H      3.06190405      4.58544375     -0.96441837
  H      3.33223984      5.53338964      0.49057999
  C      4.23622141      3.57558722      0.51046745
  H      5.19513438      3.98025023      0.18201243
  H      4.27240217      3.41979125      1.58904777
  H      4.08719893      2.60585180      0.03209550
  C      1.50139173      4.37402284      2.56400196
  H      1.96291927      3.51646523      3.06217261
  H      0.46818960      4.42426119      2.92212375
  C      2.23931697      5.64167199      2.99269742
  H      2.11325477      5.78166299      4.06787376
  H      3.30624691      5.56423142      2.78467173
  H      1.84932005      6.52551525      2.48777607

