#B3LYP/6-31+G(d) OPT FREQ

146, Energy =   -192.73159374 au

0 1
 Co     -0.30838783     -2.15027381      0.15148716
 Co      0.75609750      2.14627251     -0.15263076
 Co     -2.01228638      0.39980275     -0.36483654
 Co     -0.15568713      0.24418760      2.06420166
 Co      2.26182159     -0.50519026     -0.01227604
 Co      0.24371153     -0.05093868     -2.32665846
 Te      2.26680422      1.17419402     -1.78022619
 Te     -1.30656054      2.19836591      1.12394813
 Te     -0.95833276      2.02741394     -1.83403046
 Te      1.33350074     -1.67424445      1.90809922
 Te     -2.06691258     -1.16110126      1.49840678
 Te     -1.59116726     -1.55356599     -1.79768721
 Te      2.05068053      1.19643491      1.69953368
 Te      1.34273063     -2.08668003     -1.64446567
  P     -0.19231302      0.53105593     -4.34841316
  C     -1.89895413      0.97016809     -4.99690959
  H     -2.28098516      1.78858574     -4.38046542
  H     -1.82372621      1.34551198     -6.02228451
  C     -2.90396533     -0.18065085     -4.97096585
  H     -3.90635871      0.19685748     -5.18032638
  H     -2.65752085     -0.93257340     -5.72126767
  H     -2.90975149     -0.66483325     -3.99281893
  C      0.24130407     -0.77300148     -5.64681680
  H     -0.45463873     -1.60784927     -5.51732292
  H      0.08878816     -0.38430873     -6.65733947
  C      1.66227558     -1.31154639     -5.50751102
  H      1.85143724     -2.07741720     -6.26151971
  H      2.39822611     -0.51605032     -5.62969569
  H      1.79374302     -1.75907994     -4.51953679
  C      0.75041129      2.03612685     -4.95634346
  H      1.74193009      2.00475304     -4.49235086
  H      0.24314881      2.90828481     -4.53014214
  C      0.91139897      2.23998090     -6.46203292
  H      1.39349262      3.20208383     -6.64499815
  H      1.53527055      1.46040005     -6.89863235
  H     -0.05240884      2.24055128     -6.97151966
  P      1.78598450      3.93761673      0.40509486
  C      1.21571602      5.41731568     -0.62700541
  H      0.17317166      5.63283726     -0.37161518
  H      1.80226772      6.30828511     -0.38691939
  C      1.31055256      5.15036871     -2.12842940
  H      0.95161735      6.01579915     -2.68782615
  H      2.34060706      4.94748173     -2.42460476
  H      0.69791375      4.28646643     -2.39677262
  C      3.63892025      4.14322495      0.16744424
  H      3.90264594      3.55255231     -0.71676340
  H      3.87262581      5.18682585     -0.06445490
  C      4.51671119      3.69115614      1.33278784
  H      5.56259539      3.67201107      1.02138738
  H      4.42196724      4.36729026      2.18259034
  H      4.23031051      2.69007613      1.65879990
  C      1.50302928      4.62320338      2.12630251
  H      2.02887877      3.96689355      2.82588019
  H      0.43538867      4.50474638      2.34239908
  C      1.90658164      6.07293449      2.39467115
  H      1.80122023      6.28660372      3.45992435
  H      2.94274744      6.25620556      2.11037849
  H      1.26876772      6.76501227      1.84514001
  P     -0.36386881     -4.09070320      1.06603352
  C      1.10787670     -5.25628115      1.01916550
  H      1.91674764     -4.78686759      1.58605130
  H      0.86550843     -6.19697811      1.52240687
  C      1.60269540     -5.56815099     -0.39229929
  H      2.54607397     -6.11460448     -0.34495021
  H      0.87735092     -6.17697101     -0.93334143
  H      1.76219483     -4.64530302     -0.95565514
  C     -1.65489429     -5.24169726      0.30774819
  H     -1.37697726     -5.41264717     -0.73721857
  H     -1.65109799     -6.21687103      0.80246036
  C     -3.06261327     -4.65097537      0.34080269
  H     -3.76987266     -5.33179683     -0.13566014
  H     -3.39000601     -4.46964411      1.36534109
  H     -3.07915768     -3.70109467     -0.19655407
  C     -0.78345052     -4.21078967      2.88939233
  H     -1.59927663     -3.50542781      3.07713461
  H      0.08586971     -3.82746137      3.43328086
  C     -1.17010629     -5.57189252      3.46673879
  H     -1.30111322     -5.47711103      4.54638684
  H     -2.10827741     -5.92891207      3.04217701
  H     -0.39822202     -6.31956048      3.28329436
  P      4.26717338     -1.14781750     -0.38359946
  C      5.20062571     -0.81294180     -1.97278838
  H      5.34124104      0.26927624     -2.05545451
  H      6.19196108     -1.27336321     -1.92725299
  C      4.48448249     -1.30300167     -3.22756803
  H      5.12143216     -1.16519307     -4.10285816
  H      4.22118168     -2.35784890     -3.14710367
  H      3.57080802     -0.72604657     -3.36961108
  C      4.71744515     -2.96070417     -0.16478093
  H      4.04479969     -3.53596146     -0.80855459
  H      5.73634879     -3.15501153     -0.51280731
  C      4.57140550     -3.46000862      1.27182515
  H      4.63298335     -4.54914617      1.29788199
  H      5.35862058     -3.05528384      1.90850331
  H      3.60735729     -3.15532318      1.68686066
  C      5.45206228     -0.32199596      0.82423748
  H      5.09065241     -0.53955543      1.83461988
  H      5.33781793      0.75873341      0.68997432
  C      6.93844316     -0.67119628      0.73949023
  H      7.47436520     -0.16411806      1.54402535
  H      7.10230066     -1.74329151      0.84481996
  H      7.36480778     -0.34678405     -0.20944347
  P     -4.15334828      0.32585658     -0.48041165
  C     -5.13541099     -1.27214171     -0.48613058
  H     -4.71741965     -1.90704488      0.30153040
  H     -6.17638783     -1.06996344     -0.21651248
  C     -5.11667330     -2.03811392     -1.80695300
  H     -5.59276374     -3.01161715     -1.67814774
  H     -5.65038466     -1.49152082     -2.58494503
  H     -4.08784946     -2.19623420     -2.13800378
  C     -5.03892193      1.23007557     -1.87635093
  H     -4.76939579      0.73847710     -2.81596438
  H     -6.12400779      1.14176719     -1.77128411
  C     -4.64882566      2.70349896     -1.97579998
  H     -5.12164175      3.15822657     -2.84784641
  H     -4.95725115      3.25461201     -1.08683851
  H     -3.56473151      2.79986556     -2.07995505
  C     -4.92886646      1.12463596      1.03434186
  H     -4.34909528      2.02546163      1.26083527
  H     -4.75236922      0.43202068      1.86437028
  C     -6.41320251      1.48777464      1.00064150
  H     -6.71659484      1.84619476      1.98600150
  H     -6.60940524      2.27902322      0.27781615
  H     -7.03173697      0.62657852      0.74789646
  P     -0.98567687      0.53449235      4.01773177
  C     -2.77194111      1.00340006      4.34122494
  H     -3.38457699      0.42147894      3.64575864
  H     -3.06184731      0.69932757      5.35128574
  C     -3.09173738      2.48692575      4.16902156
  H     -4.17247898      2.63740604      4.18494611
  H     -2.64791756      3.07882062      4.96986828
  H     -2.70505115      2.84868116      3.21340450
  C     -0.13609684      1.75772600      5.17270768
  H     -0.23417916      2.75348629      4.72848397
  H     -0.63758762      1.78933874      6.14420159
  C      1.35021205      1.46536005      5.37090601
  H      1.80651209      2.24565160      5.98230556
  H      1.50218263      0.50486803      5.86421565
  H      1.86086537      1.43968160      4.40452465
  C     -0.91174224     -1.05472205      5.02326739
  H      0.05517595     -1.52665286      4.81808694
  H     -1.67077844     -1.71820351      4.59501617
  C     -1.11548097     -0.98117033      6.53637868
  H     -1.12512672     -1.99254768      6.94700093
  H     -0.30897940     -0.42836723      7.01700905
  H     -2.06173158     -0.50306705      6.78981786

