#B3LYP/6-31+G(d) OPT FREQ

146, Energy =   -192.73176532 au

0 1
 Co      1.23814080     -1.82828271      0.17289851
 Co     -0.76132962      2.11365674     -0.24680442
 Co     -1.74086668     -1.00626414     -0.24561341
 Co     -0.10635261      0.20238848      2.04554934
 Co      2.12585978      1.06216521     -0.19388433
 Co      0.18440343      0.00091889     -2.35718505
 Te      0.94699229      2.27400098     -1.95086021
 Te     -2.29792440      0.88975248      1.17969590
 Te     -2.05525124      0.82387746     -1.81228185
 Te      2.26113760     -0.31416704      1.80488597
 Te     -0.67972779     -2.13355124      1.62877453
 Te     -0.22208046     -2.29748904     -1.68537339
 Te      0.94353753      2.32670809      1.49677008
 Te      2.36752271     -0.81955150     -1.74449531
  P      4.05326971      1.86785237     -0.64544569
  C      4.47919130      2.68993041     -2.27384833
  H      3.87834658      3.60084559     -2.35744206
  H      5.53233299      2.98578002     -2.28068752
  C      4.20183519      1.81478489     -3.49277443
  H      4.55377002      2.30954289     -4.39947913
  H      4.69646608      0.84701227     -3.40636065
  H      3.12787876      1.65060431     -3.58236281
  C      5.58049459      0.78564021     -0.46383977
  H      5.41173040     -0.10927855     -1.07085638
  H      6.46416825      1.28580781     -0.87133038
  C      5.86256466      0.35881936      0.97594574
  H      6.61062349     -0.43543142      0.99126951
  H      6.23759236      1.19581409      1.56552071
  H      4.95076277     -0.01132812      1.45141163
  C      4.46500476      3.28414886      0.52289849
  H      4.40653542      2.89035348      1.54288487
  H      3.65403786      4.01462441      0.43754438
  C      5.79963145      4.00801979      0.34152780
  H      5.92197059      4.74438219      1.13797700
  H      6.63864261      3.31419936      0.38777033
  H      5.83491914      4.53187729     -0.61337488
  P      2.51367512     -3.29976891      1.07451762
  C      4.38466397     -3.23152907      0.93297114
  H      4.71982686     -2.32363761      1.44205932
  H      4.83673094     -4.07922394      1.45641255
  C      4.89634739     -3.21530059     -0.50654597
  H      5.96944967     -3.01760414     -0.51891625
  H      4.71592025     -4.17383707     -0.99448241
  H      4.39151026     -2.43723983     -1.08459285
  C      2.24582648     -5.04096439      0.39555918
  H      2.51591717     -5.03110059     -0.66511970
  H      2.90650338     -5.76094763      0.88609351
  C      0.79558089     -5.50249311      0.51857493
  H      0.67702568     -6.49719462      0.08597788
  H      0.47997852     -5.53671870      1.56186318
  H      0.14039033     -4.81159655     -0.01481872
  C      2.36271287     -3.59326446      2.92005749
  H      1.29431913     -3.58699040      3.15817202
  H      2.79227176     -2.71345499      3.40977348
  C      2.99059723     -4.85108691      3.51913105
  H      2.87142228     -4.82757232      4.60396075
  H      2.50446677     -5.75174572      3.14508641
  H      4.05578559     -4.91256115      3.29647146
  P     -0.61474222      0.09179240     -4.34929520
  C     -2.21632524     -0.72037202     -4.89840416
  H     -3.01888663     -0.31009421     -4.27933610
  H     -2.43624719     -0.44942837     -5.93567971
  C     -2.22927280     -2.24376788     -4.78036125
  H     -3.24087972     -2.62016605     -4.94194072
  H     -1.57122831     -2.69917784     -5.52110450
  H     -1.89409637     -2.55638707     -3.78986760
  C      0.51245471     -0.65455890     -5.67158485
  H      0.54403478     -1.73579893     -5.50410409
  H      0.09796685     -0.49863507     -6.67127734
  C      1.94044869     -0.11976005     -5.61313396
  H      2.55650211     -0.60391037     -6.37267131
  H      1.96389884      0.95730620     -5.78282513
  H      2.37422862     -0.32754761     -4.63203038
  C     -0.91436519      1.82297143     -5.00832873
  H     -0.10166815      2.45460572     -4.63430433
  H     -1.82685648      2.18312972     -4.52130330
  C     -1.04364110      2.01962691     -6.51810350
  H     -1.30292795      3.05980021     -6.72376734
  H     -0.10460101      1.79826352     -7.02483780
  H     -1.82414793      1.38572238     -6.93925444
  P     -0.78199041     -0.05540386      4.06410754
  C     -2.44162787     -0.79488232      4.52791671
  H     -2.58944749     -1.67246156      3.89090583
  H     -2.41519498     -1.15233153      5.56153736
  C     -3.63521872      0.14452221      4.36913235
  H     -4.56512140     -0.41434072      4.48689465
  H     -3.61114851      0.93860915      5.11583221
  H     -3.62807361      0.60073102      3.37638432
  C     -0.80131814      1.45985517      5.18590505
  H     -1.54071973      2.16000150      4.78411401
  H     -1.12704169      1.19625877      6.19609891
  C      0.54894060      2.17156628      5.24852112
  H      0.46362336      3.08581890      5.83816271
  H      1.30983888      1.53580840      5.70231059
  H      0.88053026      2.43889254      4.24145819
  C      0.33503402     -1.22274403      5.02700405
  H      1.36778178     -0.99791203      4.73985693
  H      0.12380726     -2.22663850      4.64350798
  C      0.23956978     -1.24505924      6.55234492
  H      0.88577323     -2.03437227      6.94089401
  H      0.56556584     -0.29849020      6.98222787
  H     -0.77848830     -1.44489894      6.88679022
  P     -3.32740262     -2.44875188     -0.20277529
  C     -3.03835390     -4.30008002     -0.12301738
  H     -2.26509669     -4.47042919      0.63282001
  H     -3.94445204     -4.80482993      0.22511535
  C     -2.60065839     -4.94097363     -1.43810684
  H     -2.31807949     -5.98122088     -1.26802272
  H     -3.40550589     -4.91625791     -2.17321923
  H     -1.73895566     -4.41042999     -1.84917490
  C     -4.65413252     -2.40397560     -1.53992959
  H     -4.17599780     -2.65133343     -2.49260074
  H     -5.41661096     -3.16693978     -1.35905053
  C     -5.31693093     -1.03455428     -1.67616200
  H     -6.01171847     -1.03639857     -2.51759141
  H     -5.86690651     -0.77031647     -0.77239537
  H     -4.55987377     -0.26608161     -1.85417474
  C     -4.35971654     -2.25274142      1.35585899
  H     -4.50291813     -1.17929740      1.51802763
  H     -3.73119951     -2.60396677      2.18135403
  C     -5.71728141     -2.95033683      1.43620371
  H     -6.13946951     -2.79840862      2.43130280
  H     -6.41529786     -2.54106578      0.70655519
  H     -5.62758932     -4.02324736      1.26602197
  P     -1.36323686      4.05491631      0.42548694
  C     -3.07746917      4.55744365     -0.19076645
  H     -3.81445836      3.91948490      0.30755267
  H     -3.29632934      5.59227867      0.08663852
  C     -3.24079182      4.40861591     -1.70246466
  H     -4.26301670      4.65573055     -1.99355051
  H     -2.55909200      5.07099135     -2.23766364
  H     -3.03244690      3.38020688     -2.00822348
  C     -0.44035814      5.61448287     -0.08189423
  H     -0.69422148      5.83235113     -1.12389900
  H     -0.78471262      6.46486566      0.51433659
  C      1.07782689      5.50236843      0.02635295
  H      1.54672129      6.44849162     -0.24939063
  H      1.37839839      5.24365234      1.04202165
  H      1.44109741      4.72446567     -0.64923305
  C     -1.58038150      4.36295061      2.26268583
  H     -0.58125350      4.52487215      2.67705396
  H     -1.94914010      3.43073440      2.70303542
  C     -2.49331284      5.50623250      2.70465241
  H     -2.42428932      5.62200975      3.78785770
  H     -2.20328250      6.45033556      2.24275306
  H     -3.53289955      5.29878769      2.45168698

