#B3LYP/6-31+G(d) OPT FREQ

146, Energy =   -192.65382617 au

0 1
 Co     -0.27800663     -1.48605540      0.75745186
 Co      0.17755201      1.87672743     -0.20077838
 Co     -2.11906255      1.63826076      0.53633170
 Co      0.98958823      0.87899054      2.09507995
 Co      2.56276290      0.11142709      0.05913546
 Co     -0.29924917      0.00716564     -1.76776694
 Te      1.77471738      1.27775005     -1.93506566
 Te     -0.46931586      2.84463102      1.91877391
 Te     -1.62010235      2.01887045     -1.82105991
 Te      1.89415359     -1.38285972      1.81643864
 Te     -1.35015521      0.14260279      2.29770041
 Te     -2.24426471     -0.60237496     -0.44484988
 Te      2.33646983      2.41985714      0.72015696
 Te      1.37562597     -1.64791385     -1.09700414
  P     -4.13681487      2.36835897      0.86919985
  C     -5.02691149      2.00987711      2.48833978
  H     -4.48499598      2.51250434      3.29607782
  H     -6.04270880      2.41568064      2.47863124
  C     -5.09590771      0.51398334      2.79911881
  H     -5.59190827      0.35265887      3.75777692
  H     -5.65227190     -0.02011399      2.02781670
  H     -4.09044694      0.09070559      2.85492277
  C     -5.50186728      1.84683503     -0.31368272
  H     -5.49589910      0.75196289     -0.34831133
  H     -6.48515774      2.14746185      0.06043341
  C     -5.31719067      2.37609854     -1.73551883
  H     -6.03252180      1.89988807     -2.40813488
  H     -5.47080703      3.45484411     -1.77464353
  H     -4.30692130      2.16283104     -2.09444956
  C     -4.28704486      4.23930200      0.82667362
  H     -3.89257629      4.57275621     -0.13910358
  H     -3.59979739      4.63049937      1.58504912
  C     -5.66639758      4.86492893      1.04079382
  H     -5.59079988      5.94933917      0.94230778
  H     -6.38312254      4.50556978      0.30278032
  H     -6.05064684      4.64002806      2.03556488
  P     -0.68803701     -1.25060647     -3.47913302
  C      0.66257259     -1.50284930     -4.75859332
  H      1.49213088     -2.02324297     -4.26900226
  H      0.31518098     -2.13946862     -5.57720066
  C      1.17606503     -0.18550884     -5.33809130
  H      2.01975174     -0.37080673     -6.00448830
  H      0.39432513      0.32496019     -5.90165917
  H      1.50880513      0.47641059     -4.53492191
  C     -2.07832253     -0.71061846     -4.63262159
  H     -1.85336297      0.30832611     -4.96383107
  H     -2.11293306     -1.33614133     -5.52924622
  C     -3.44995238     -0.70645311     -3.95995732
  H     -4.19649880     -0.28173760     -4.63305560
  H     -3.75987707     -1.71670751     -3.69159357
  H     -3.42477815     -0.10630855     -3.04852576
  C     -1.15573660     -3.03482464     -3.15470607
  H     -1.92972210     -3.03551570     -2.37990556
  H     -0.27504913     -3.50850086     -2.71085081
  C     -1.62873863     -3.89168256     -4.32868077
  H     -1.80902545     -4.90959055     -3.97816073
  H     -2.55728239     -3.50973542     -4.75178887
  H     -0.87846100     -3.93241686     -5.11815000
  P     -1.25583675     -3.10989154      1.83433795
  C     -1.19668522     -3.22047142      3.70946959
  H     -1.51449094     -2.24900733      4.10112622
  H     -1.91256232     -3.96364405      4.07269295
  C      0.18052288     -3.55855422      4.27759344
  H      0.16328454     -3.47980787      5.36586874
  H      0.47332092     -4.57476534      4.01240625
  H      0.93478735     -2.87188476      3.89031487
  C     -0.70487040     -4.86176291      1.42464919
  H      0.36496103     -4.93245964      1.64741686
  H     -1.21219820     -5.60609416      2.04450380
  C     -0.90748380     -5.18733787     -0.05340325
  H     -0.49044527     -6.16819185     -0.28640354
  H     -1.96533200     -5.18956207     -0.31743493
  H     -0.40219585     -4.44112353     -0.66855185
  C     -3.11726978     -3.23790677      1.60116082
  H     -3.31386197     -3.12428726      0.53033339
  H     -3.54975433     -2.35122523      2.07765771
  C     -3.84883854     -4.48041790      2.10952170
  H     -4.91850165     -4.36747795      1.92382951
  H     -3.50790664     -5.37721264      1.59298424
  H     -3.70422958     -4.62097275      3.18051622
  P      0.31055259      3.50827874     -3.29806230
  C     -1.11410686      4.49051131     -4.08293182
  H     -1.83432534      4.73084240     -3.29604801
  H     -0.78886094      5.42955635     -4.53824433
  C     -1.81849873      3.63612732     -5.13681680
  H     -2.67841132      4.16667373     -5.54935878
  H     -1.13997384      3.38754266     -5.95411245
  H     -2.17027678      2.70610124     -4.68535571
  C      1.61558456      4.04380468     -4.59482689
  H      1.31960721      3.59101613     -5.54602729
  H      1.59833352      5.12863792     -4.73713231
  C      3.03998333      3.60573544     -4.26954295
  H      3.70969210      3.86131448     -5.09290477
  H      3.40342425      4.09559038     -3.36532065
  H      3.08230933      2.52765822     -4.10927100
  C      0.80297025      4.67457021     -1.91570968
  H      1.87251527      4.53016379     -1.73465924
  H      0.29620876      4.32792257     -1.00437803
  C      0.53102365      6.16693146     -2.09566618
  H      0.94694659      6.71584102     -1.24840224
  H      0.99312058      6.54720878     -3.00717638
  H     -0.53927098      6.36853610     -2.13757408
  P      2.14930195      1.11393649      3.93197755
  C      4.01074351      1.35430644      3.84497166
  H      4.19175412      2.35429396      3.43741384
  H      4.44309145      1.32833640      4.84989486
  C      4.74407680      0.33975300      2.97071367
  H      5.81833337      0.52995082      2.99925617
  H      4.55992094     -0.67820208      3.31465671
  H      4.40572238      0.41821035      1.93306664
  C      2.06431477     -0.15694121      5.31261135
  H      2.40359355     -1.11037129      4.89618503
  H      2.73285682      0.08814024      6.14276764
  C      0.63775018     -0.32488454      5.83622168
  H      0.57840465     -1.18409810      6.50596117
  H      0.31859248      0.56146980      6.38550231
  H     -0.05821187     -0.48016381      5.00844986
  C      1.71734372      2.68703898      4.87768523
  H      0.64395433      2.65385083      5.09184550
  H      1.85649958      3.51919392      4.17882230
  C      2.47173613      2.99571595      6.17165210
  H      2.08941759      3.92408302      6.60004572
  H      2.33812170      2.20268095      6.90706513
  H      3.53823644      3.12121893      5.98614273
  P      3.22343435     -3.43453715      0.11104513
  C      3.57953032     -4.35042611     -1.51587954
  H      3.65147306     -3.60939919     -2.31656362
  H      4.52210605     -4.90279201     -1.48648491
  C      2.44202599     -5.31247489     -1.85266669
  H      2.64111694     -5.82775715     -2.79392453
  H      2.31679004     -6.06025996     -1.06826131
  H      1.50636201     -4.76000789     -1.95496988
  C      4.05130574     -4.72116226      1.25900898
  H      3.53858075     -5.67565219      1.10674529
  H      5.10452014     -4.87567297      1.00603045
  C      3.93397259     -4.33511661      2.73168833
  H      4.36537303     -5.11263041      3.36489359
  H      4.45505372     -3.39806115      2.93285334
  H      2.88678924     -4.20408424      3.00740976
  C      4.63787677     -2.19654644      0.08477170
  H      4.94626850     -2.05024683      1.12369704
  H      4.22494202     -1.22556904     -0.25156113
  C      5.87744403     -2.51991310     -0.74622685
  H      6.63730097     -1.75486232     -0.57588957
  H      6.29933598     -3.48567270     -0.46562247
  H      5.64602077     -2.53606410     -1.81109571

