#B3LYP/6-31+G(d) OPT FREQ

146, Energy =   -192.73553905 au

0 1
 Co     -1.07113949     -1.79977575      0.14720400
 Co      1.16463036      1.89644230     -0.47022411
 Co     -1.75177195      1.40185046      0.16382291
 Co      0.23758548      0.13852429      2.13156449
 Co      1.91933453     -1.05110157     -0.17987950
 Co     -0.41323011     -0.09912337     -2.25229251
 Te      1.96365449      0.33291899     -2.17547251
 Te     -0.03928332      2.48720223      1.54542374
 Te     -0.78537605      2.25383892     -1.90019829
 Te      0.81442185     -2.17673704      1.65758147
 Te     -2.14970699     -0.35339946      1.77933657
 Te     -2.58998537     -0.41887234     -1.17203121
 Te      2.41144970      0.82795278      1.32653329
 Te      0.49457137     -2.28137328     -1.67930654
  P     -0.31679278     -0.07583981      4.19866326
  C     -1.58237037      1.03871040      5.02591298
  H     -2.52134814      0.92707740      4.47600116
  H     -1.76756446      0.70467853      6.05130886
  C     -1.19548192      2.51649773      5.05593464
  H     -2.04464240      3.11640368      5.38752172
  H     -0.36417313      2.68854400      5.74043011
  H     -0.89650639      2.85527841      4.06121571
  C      1.12015766      0.19831989      5.39518928
  H      1.43307449      1.24361378      5.31069456
  H      0.80881259      0.04103688      6.43124573
  C      2.32010673     -0.68863776      5.07208954
  H      3.13442423     -0.49543478      5.77220252
  H      2.05694575     -1.74558302      5.12780260
  H      2.67377043     -0.47520148      4.06152858
  C     -0.96954173     -1.73568852      4.77624588
  H     -0.39670009     -2.50581758      4.25030582
  H     -1.99760636     -1.80864024      4.40766925
  C     -0.95489882     -2.05112171      6.27144868
  H     -1.46534595     -3.00088789      6.44151126
  H      0.06510579     -2.14443045      6.64333661
  H     -1.46723890     -1.28236517      6.84988513
  P     -1.32679871     -1.00430487     -3.96871618
  C     -0.11852105     -1.58700272     -5.29505347
  H      0.41421679     -2.45667744     -4.89713491
  H     -0.65803159     -1.91106479     -6.18918945
  C      0.90128546     -0.52435554     -5.69782334
  H      1.59240608     -0.92981055     -6.43848478
  H      0.40631056      0.34806565     -6.12637602
  H      1.47691857     -0.20242183     -4.82693021
  C     -2.42381053      0.08305692     -5.05232761
  H     -1.89789264      1.03411778     -5.18597754
  H     -2.54403320     -0.35683249     -6.04675985
  C     -3.80200430      0.36733224     -4.45931104
  H     -4.29813538      1.15821461     -5.02420429
  H     -4.42909580     -0.52406860     -4.48716878
  H     -3.71380166      0.68409292     -3.41840769
  C     -2.37263346     -2.55100620     -3.81962218
  H     -3.26000037     -2.28629276     -3.23848625
  H     -1.80657668     -3.26356646     -3.21154943
  C     -2.81440617     -3.24690962     -5.10662623
  H     -3.50098021     -4.05789186     -4.85658083
  H     -3.33074814     -2.55846740     -5.77551012
  H     -1.96389066     -3.67527928     -5.63639394
  P      3.91732211     -1.65317809      0.31169731
  C      5.41909060     -0.66011632     -0.22340382
  H      5.34217540      0.32611842      0.24346242
  H      6.33520833     -1.12379311      0.15440923
  C      5.54326023     -0.48718768     -1.73621612
  H      6.33540187      0.22720639     -1.96645611
  H      5.78236880     -1.43550510     -2.21880012
  H      4.60582495     -0.11505617     -2.15681117
  C      4.39277181     -3.31956289     -0.43841232
  H      4.38255371     -3.21176214     -1.52761289
  H      5.40992341     -3.60331023     -0.15524669
  C      3.41892993     -4.43245002     -0.05735116
  H      3.72244620     -5.37458638     -0.51667717
  H      3.37835934     -4.56887944      1.02395933
  H      2.41609263     -4.18246315     -0.40878195
  C      4.36692396     -1.91121615      2.11322214
  H      3.49946521     -2.36839847      2.59985612
  H      4.47633640     -0.91302857      2.54872085
  C      5.60962479     -2.73558640      2.44736023
  H      5.78529401     -2.69692498      3.52401208
  H      5.47793001     -3.77936837      2.16359100
  H      6.49583930     -2.34747242      1.94514089
  P     -2.80339450      3.25884276      0.37724763
  C     -3.62383636      3.60859924      2.03756924
  H     -2.83086548      3.74943729      2.77806078
  H     -4.20062252      4.53668084      1.99834938
  C     -4.54345847      2.47961910      2.49949863
  H     -4.88802440      2.66903552      3.51736267
  H     -5.41456941      2.39751178      1.84817560
  H     -4.01332728      1.52381401      2.48462950
  C     -4.34064939      3.39521840     -0.71530029
  H     -4.87062906      2.43993530     -0.63952403
  H     -5.01592243      4.16465402     -0.32991341
  C     -4.05145922      3.67213017     -2.18877159
  H     -4.95457131      3.52253462     -2.78269356
  H     -3.70606810      4.69567104     -2.33500135
  H     -3.27352620      3.00060104     -2.55850798
  C     -1.98415917      4.91676927      0.07858127
  H     -1.54069955      4.88012653     -0.92118179
  H     -1.15138984      4.99046487      0.78455507
  C     -2.83976619      6.17766829      0.19660199
  H     -2.23535443      7.04533038     -0.07451560
  H     -3.70065451      6.14256987     -0.47031260
  H     -3.19696197      6.31975376      1.21638829
  P     -1.67574323     -3.82616834      0.50467798
  C     -0.52712992     -5.29606892      0.31230323
  H      0.41355335     -5.03333675      0.80649594
  H     -0.93692147     -6.16088394      0.84250464
  C     -0.23713487     -5.70350759     -1.13044571
  H      0.54811868     -6.46099065     -1.15145897
  H     -1.12704008     -6.11316128     -1.60904888
  H      0.10049630     -4.83879437     -1.70656535
  C     -3.17428708     -4.48487558     -0.43241394
  H     -2.91694895     -4.51771289     -1.49553187
  H     -3.40649142     -5.50976590     -0.12979570
  C     -4.41087059     -3.60395755     -0.26458345
  H     -5.22591644     -3.97878484     -0.88583648
  H     -4.74524780     -3.58646627      0.77323544
  H     -4.18633214     -2.57834092     -0.57015829
  C     -2.20317656     -4.11208544      2.28543630
  H     -2.77418152     -3.23291009      2.60185009
  H     -1.28190248     -4.10844314      2.87718440
  C     -3.00401190     -5.36859819      2.62607859
  H     -3.13777843     -5.42553678      3.70795693
  H     -3.99057926     -5.34523932      2.16431999
  H     -2.48987225     -6.27274203      2.29992533
  P      2.19799846      3.42034166     -1.55791734
  C      1.80051138      4.03987502     -3.28123785
  H      0.81069961      4.50411113     -3.24035459
  H      2.51903408      4.81843886     -3.55497565
  C      1.79078226      2.98283020     -4.38151495
  H      1.66599017      3.46144859     -5.35459511
  H      2.71909975      2.41203804     -4.38768965
  H      0.96227179      2.29209241     -4.22712099
  C      4.07136855      3.31997897     -1.71691385
  H      4.29632233      2.41159087     -2.28374077
  H      4.46088477      4.16312817     -2.29478025
  C      4.79017063      3.25355396     -0.37071387
  H      5.84224929      3.00477873     -0.51868507
  H      4.73162101      4.20949245      0.15078528
  H      4.33812273      2.48970162      0.26737669
  C      1.99804207      5.05570107     -0.63322785
  H      2.28063680      4.87309446      0.40881483
  H      0.92643605      5.28076145     -0.61993454
  C      2.74965558      6.28551834     -1.14355535
  H      2.55315828      7.12877267     -0.47870553
  H      3.82540203      6.11333036     -1.16429529
  H      2.42255513      6.56070186     -2.14590905

