#B3LYP/6-31+G(d) OPT FREQ

146, Energy =   -192.72825645 au

0 1
 Co      0.84356635     -1.94472535      0.13622326
 Co     -0.43478555      2.21165270     -0.52778219
 Co     -1.89937227     -0.68056887     -0.25590438
 Co     -0.13191770      0.51682946      1.96297998
 Co      2.27622010      0.69357957     -0.14103262
 Co      0.22834166     -0.07695188     -2.42645863
 Te      1.47100078      1.97530825     -2.02395540
 Te     -2.18124459      1.41246459      0.96150526
 Te     -1.92417716      0.99656596     -2.00512025
 Te      1.99261629     -0.65980751      1.85596610
 Te     -0.98005025     -1.74905232      1.73355964
 Te     -0.69557817     -2.19875027     -1.74297310
 Te      1.25375162      2.37608769      1.23209021
 Te      2.24705370     -1.15060369     -1.71497340
  P     -0.27420906      0.43129247     -4.44290456
  C     -1.78213079     -0.31224449     -5.28349205
  H     -2.66458492      0.08103591     -4.76966993
  H     -1.83682196      0.01732526     -6.32553754
  C     -1.82794867     -1.83875331     -5.24620973
  H     -2.79391982     -2.19233986     -5.61043473
  H     -1.04447953     -2.26787634     -5.87189412
  H     -1.68705342     -2.20186853     -4.22495970
  C      1.03819338     -0.13115348     -5.68286257
  H      1.05754019     -1.22557780     -5.67194085
  H      0.76983679      0.17186551     -6.69831050
  C      2.43655820      0.37805623     -5.34274203
  H      3.15265671      0.04703005     -6.09669521
  H      2.45831810      1.46745964     -5.29465831
  H      2.74853033     -0.01432606     -4.37252459
  C     -0.53468594      2.22460815     -4.92441876
  H      0.17907461      2.82456720     -4.35115027
  H     -1.53050583      2.50256659     -4.56572389
  C     -0.41918846      2.59967448     -6.40110212
  H     -0.70117788      3.64666487     -6.52718778
  H      0.60322687      2.47971870     -6.75873305
  H     -1.07918754      1.99312515     -7.02165076
  P     -0.59927595      0.69160835      4.05170337
  C     -2.34951761      0.46961571      4.69188752
  H     -2.74016763     -0.45642181      4.25752523
  H     -2.34344682      0.33678532      5.77761341
  C     -3.29501521      1.61732822      4.34470884
  H     -4.31733633      1.35527500      4.62204566
  H     -3.01419982      2.52934624      4.87225252
  H     -3.26798992      1.81649051      3.27016427
  C     -0.11264868      2.22941215      5.01879961
  H     -0.66813620      3.07572074      4.60202444
  H     -0.40738238      2.14061862      6.06837446
  C      1.37987553      2.54170941      4.92694999
  H      1.60026833      3.47631203      5.44520695
  H      1.97799312      1.74689612      5.37373855
  H      1.67514209      2.64898632      3.87947482
  C      0.24801983     -0.66431127      5.03843275
  H      1.28899202     -0.70635588      4.69976849
  H     -0.20953453     -1.60680045      4.71677714
  C      0.22442496     -0.59100344      6.56488781
  H      0.70551280     -1.48112967      6.97441273
  H      0.76574190      0.28302830      6.92602755
  H     -0.79499416     -0.55018960      6.94839439
  P     -0.81722066      4.25428931     -0.03411251
  C     -2.45466842      4.91687708     -0.70870708
  H     -3.26462759      4.41833283     -0.16656437
  H     -2.53981779      5.98974872     -0.51618091
  C     -2.64097292      4.67178151     -2.20448205
  H     -3.62531108      5.02084875     -2.52058216
  H     -1.88341794      5.19867324     -2.78609527
  H     -2.56487459      3.60427387     -2.42584198
  C      0.30042950      5.62484170     -0.67896704
  H      0.11631061      5.73086424     -1.75263857
  H      0.02606687      6.57617120     -0.21312514
  C      1.79061573      5.37198593     -0.47111384
  H      2.37066156      6.21875969     -0.84213457
  H      2.01890377      5.22408298      0.58471089
  H      2.09646813      4.47588216     -1.01634046
  C     -0.98503003      4.76616327      1.76265277
  H      0.02879405      4.84835538      2.16400230
  H     -1.45955913      3.93449077      2.29300448
  C     -1.75078926      6.04933024      2.08328426
  H     -1.65987975      6.26293541      3.14991853
  H     -1.35220529      6.90088222      1.53123675
  H     -2.80979614      5.94504512      1.84802951
  P      1.46978360     -3.98098839      0.34714957
  C      2.64075105     -4.73089082     -0.91379442
  H      3.58301430     -4.17469949     -0.87623258
  H      2.86276776     -5.76949827     -0.65280625
  C      2.10466947     -4.68899780     -2.34352413
  H      2.82101463     -5.15263377     -3.02369711
  H      1.15444194     -5.21744651     -2.42359229
  H      1.95356852     -3.65409245     -2.65560471
  C      0.14696611     -5.31507133      0.33043243
  H     -0.52181072     -5.08821986     -0.50622604
  H      0.59178071     -6.29420366      0.12837819
  C     -0.68282384     -5.39598978      1.61084630
  H     -1.55434439     -6.03255785      1.44964276
  H     -0.09996979     -5.81282564      2.43241673
  H     -1.02711349     -4.40113096      1.90498499
  C      2.38674346     -4.39097535      1.93402016
  H      1.71624929     -4.14490563      2.76408675
  H      3.22425655     -3.69135813      2.00987276
  C      2.91696152     -5.81305850      2.12160586
  H      3.32553077     -5.91595201      3.12851120
  H      2.12782228     -6.55392493      1.99688800
  H      3.71225923     -6.03071554      1.40909968
  P     -3.71148172     -1.74303810      0.16084780
  C     -3.84901623     -3.61266581      0.14561060
  H     -3.11169689     -4.00145526      0.85345684
  H     -4.83446891     -3.91926098      0.50859854
  C     -3.61052151     -4.24942086     -1.22192165
  H     -3.56993965     -5.33553591     -1.12503404
  H     -4.41011901     -3.99269820     -1.91749590
  H     -2.66316762     -3.90106966     -1.64174521
  C     -5.15958974     -1.32955553     -0.97491006
  H     -4.89169854     -1.64619708     -1.98795109
  H     -6.05178056     -1.89395436     -0.68950157
  C     -5.48305972      0.16314952     -1.00772184
  H     -6.30695899      0.35313637     -1.69755281
  H     -5.76606116      0.52816695     -0.01980675
  H     -4.61124179      0.72827814     -1.34687430
  C     -4.45627793     -1.39791487      1.84879452
  H     -4.35149757     -0.32364354      2.03257005
  H     -3.80748379     -1.89688714      2.57634950
  C     -5.90607892     -1.80312119      2.11256516
  H     -6.14900887     -1.60358806      3.15789807
  H     -6.59505110     -1.23257736      1.49040982
  H     -6.06580500     -2.86474591      1.92399318
  P      4.37738831      0.54392403      0.17503381
  C      5.44451980      1.44548767     -1.09512788
  H      5.29487400      2.52237076     -0.96621705
  H      6.50375657      1.23935688     -0.91768880
  C      5.09812497      1.07397147     -2.53503649
  H      5.77704454      1.57391036     -3.22763262
  H      5.16958643     -0.00352080     -2.68957101
  H      4.07714370      1.38810029     -2.76308416
  C      5.30477505     -1.08878747      0.22983774
  H      4.79340913     -1.76073639     -0.46737406
  H      6.32177136     -0.95305525     -0.15013306
  C      5.37806829     -1.76612669      1.59734708
  H      5.71545195     -2.79746147      1.48022181
  H      6.07493852     -1.24988482      2.25749804
  H      4.39554397     -1.77129862      2.07215868
  C      4.97064796      1.40220973      1.73720384
  H      4.63289679      0.79897215      2.58561726
  H      4.42405747      2.34934120      1.80483932
  C      6.46720773      1.68272098      1.87472863
  H      6.67421462      2.06697843      2.87521473
  H      7.05766351      0.77868212      1.72684267
  H      6.79175657      2.42958191      1.15043554

