#B3LYP/6-31+G(d) OPT FREQ

146, Energy =   -192.73163732 au

0 1
 Co     -0.15158167     -2.16740962      0.16443178
 Co      0.60508794      2.19558756     -0.12647617
 Co     -2.03312604      0.26072976     -0.32594631
 Co     -0.15210474      0.22488616      2.08803608
 Co      2.29383397     -0.34578413     -0.01406375
 Co      0.22970082     -0.02380413     -2.31046818
 Te      2.16460452      1.33987385     -1.77171779
 Te     -1.44603973      2.09846995      1.16633991
 Te     -1.10882191      1.96359339     -1.79590561
 Te      1.46702191     -1.58385822      1.91012049
 Te     -1.96406001     -1.30909618      1.53071909
 Te     -1.49021415     -1.65432220     -1.77171289
 Te      1.97957904      1.32932678      1.70791894
 Te      1.47364046     -1.98072443     -1.64682716
  P      1.49281541      4.05642283      0.44681332
  C      0.79659776      5.49803170     -0.56131714
  H     -0.25779909      5.62501553     -0.29537979
  H      1.31111987      6.43043056     -0.31365186
  C      0.90023760      5.25897069     -2.06683783
  H      0.46620003      6.09890004     -2.61167615
  H      1.94099861      5.14607126     -2.37332679
  H      0.35883386      4.35084358     -2.34239109
  C      3.32162131      4.40819193      0.19426213
  H      3.62171739      3.84830818     -0.69834818
  H      3.47186754      5.46892825     -0.02859764
  C      4.24219850      4.01313623      1.34722545
  H      5.28366569      4.07986297      1.02779500
  H      4.10179279      4.66980824      2.20590321
  H      4.03798756      2.98891469      1.66312340
  C      1.17513753      4.69785216      2.17879729
  H      1.76006932      4.07888687      2.86535624
  H      0.12301589      4.49146586      2.40461639
  C      1.46366573      6.17248546      2.45938088
  H      1.35047359      6.36648847      3.52757795
  H      2.47943913      6.44088904      2.16915918
  H      0.76792955      6.81673008      1.92213197
  P     -0.04926291     -4.11073388      1.07000409
  C      1.51004426     -5.15634916      1.02956759
  H      2.27597657     -4.62572157      1.60207294
  H      1.33966914     -6.11424637      1.52999941
  C      2.03617778     -5.42507860     -0.37942257
  H      3.02025066     -5.89379559     -0.32756586
  H      1.36529984     -6.08959111     -0.92512896
  H      2.12348387     -4.49165301     -0.94103009
  C     -1.24117305     -5.35722864      0.30030675
  H     -0.93661592     -5.51298340     -0.73944787
  H     -1.17395055     -6.32695997      0.80082480
  C     -2.68774907     -4.86872215      0.31021650
  H     -3.33925491     -5.60501810     -0.16312024
  H     -3.03859839     -4.69643113      1.32836439
  H     -2.76546996     -3.93041963     -0.24193505
  C     -0.46698118     -4.27031139      2.89096372
  H     -1.32677839     -3.61990173      3.08050125
  H      0.37413949     -3.83674743      3.44132199
  C     -0.76875598     -5.65766541      3.45603412
  H     -0.90243538     -5.58175080      4.53677499
  H     -1.68492507     -6.06600960      3.03009246
  H      0.04596769     -6.35564130      3.26329882
  P     -0.27552033      0.53214621     -4.32402192
  C     -2.01599059      0.86556021     -4.94496803
  H     -2.43856747      1.65775326     -4.32085593
  H     -1.98068781      1.24584318     -5.97058583
  C     -2.94693922     -0.34559998     -4.90657737
  H     -3.97414888     -0.03052439     -5.09815599
  H     -2.66674390     -1.07876167     -5.66354499
  H     -2.90639194     -0.83179527     -3.93036206
  C      0.21775976     -0.73833760     -5.63436540
  H     -0.42027505     -1.61675364     -5.49521152
  H      0.02193195     -0.35788485     -6.64058250
  C      1.67299437     -1.18370701     -5.52286830
  H      1.89604611     -1.93771573     -6.27956286
  H      2.35329092     -0.34260379     -5.66109017
  H      1.85295151     -1.61931875     -4.53721079
  C      0.56572470      2.09284462     -4.94043626
  H      1.57407748      2.10556159     -4.51336989
  H      0.03116687      2.93106759     -4.48082425
  C      0.65980901      2.32848782     -6.44723169
  H      1.09120687      3.31430267     -6.63047980
  H      1.30021138      1.58520550     -6.92155071
  H     -0.32192154      2.29437730     -6.91996198
  P     -0.97354962      0.44223809      4.05565864
  C     -2.78167490      0.79122972      4.40852091
  H     -3.36606351      0.16303633      3.72912659
  H     -3.03129996      0.47695459      5.42623031
  C     -3.20561228      2.24787515      4.23222666
  H     -4.29337814      2.32505332      4.27368099
  H     -2.78359266      2.87634444      5.01685386
  H     -2.86726874      2.62591041      3.26462480
  C     -0.18989929      1.70702410      5.21243081
  H     -0.35647523      2.69831957      4.77867975
  H     -0.68077644      1.69843474      6.18981025
  C      1.31428338      1.50833217      5.39108434
  H      1.72763750      2.31192084      6.00284904
  H      1.53280473      0.55617731      5.87546498
  H      1.81382000      1.52165413      4.41867767
  C     -0.78629034     -1.14802858      5.04420563
  H      0.20546871     -1.55636766      4.82199102
  H     -1.50790503     -1.85389009      4.61899357
  C     -0.97414735     -1.10144790      6.56044345
  H     -0.91446776     -2.11511727      6.96103753
  H     -0.19789182     -0.50309725      7.03628142
  H     -1.94525053     -0.68656248      6.83066681
  P     -4.16485286      0.03375376     -0.40862260
  C     -5.02851260     -1.63109953     -0.41951778
  H     -4.55117027     -2.24382928      0.35178417
  H     -6.07649722     -1.50938757     -0.12988407
  C     -4.97715639     -2.37626193     -1.75133064
  H     -5.37773452     -3.38390625     -1.62839670
  H     -5.56372468     -1.86060632     -2.51213151
  H     -3.94566672     -2.45371381     -2.10193656
  C     -5.12985982      0.88734565     -1.78401753
  H     -4.83650663      0.42798319     -2.73268644
  H     -6.20461447      0.72045479     -1.66901330
  C     -4.84658251      2.38597902     -1.86779690
  H     -5.35642930      2.81631900     -2.73129762
  H     -5.18749555      2.90297170     -0.97023567
  H     -3.77283258      2.56065380     -1.97743428
  C     -4.97526926      0.76543777      1.12140181
  H     -4.46973143      1.71294290      1.33504400
  H     -4.72357575      0.09259937      1.94818774
  C     -6.48542389      1.00122868      1.11824699
  H     -6.79481629      1.35218627      2.10449292
  H     -6.76562853      1.75844090      0.38665410
  H     -7.03387562      0.08564703      0.89673637
  P      4.33625985     -0.82572473     -0.42552830
  C      5.21560324     -0.43105209     -2.03165763
  H      5.27360185      0.65815717     -2.12080926
  H      6.23915708     -0.81593858     -1.99932767
  C      4.52017030     -0.97978337     -3.27366093
  H      5.13478011     -0.80328574     -4.15795402
  H      4.33371764     -2.05007539     -3.18320566
  H      3.56595277     -0.47062149     -3.40741507
  C      4.93380812     -2.59548759     -0.20303049
  H      4.30799936     -3.22618900     -0.84208719
  H      5.96374646     -2.70688173     -0.55488460
  C      4.83492332     -3.09991179      1.23569509
  H      4.99271608     -4.17920602      1.26591077
  H      5.58404467     -2.62427765      1.86932151
  H      3.84837901     -2.88004487      1.65141325
  C      5.47169527      0.10215375      0.75559565
  H      5.13950877     -0.12619248      1.77356850
  H      5.27651542      1.16940534      0.60736020
  C      6.97858898     -0.13826881      0.65651660
  H      7.48605792      0.42780207      1.43985137
  H      7.22278698     -1.19222619      0.78630191
  H      7.36720749      0.19175619     -0.30656203

