#B3LYP/6-31+G(d) OPT FREQ

146, Energy =   -192.73525669 au

0 1
 Co      0.22495757     -2.02366393      0.52802940
 Co      0.31935678      2.32831675     -0.51501241
 Co     -1.99962346      0.01853574     -0.33394780
 Co     -0.11659686      0.64934041      1.98777860
 Co      2.36069503      0.11023000     -0.09030810
 Co      0.28834420     -0.35665895     -2.27158836
 Te      1.90306473      1.43898463     -2.11363164
 Te     -1.68576475      2.13905009      0.82307940
 Te     -1.27497009      1.51546082     -2.11970341
 Te      1.78522558     -0.88315388      2.04580180
 Te     -1.69693545     -1.20386302      1.74875841
 Te     -1.22180633     -2.05172155     -1.38739545
 Te      1.84411202      1.96471767      1.37545000
 Te      1.83520897     -1.94517028     -1.29368323
  P      0.72126639     -3.72227561      1.74279240
  C      2.46481653     -4.40480271      1.87724822
  H      3.09246042     -3.60928732      2.29031120
  H      2.49143713     -5.23853989      2.58531405
  C      3.06234855     -4.87102906      0.55066965
  H      4.11980098     -5.10649656      0.68183405
  H      2.55212927     -5.76297514      0.18538912
  H      2.97090586     -4.08883065     -0.20665996
  C     -0.17666618     -5.29361114      1.20247757
  H      0.17634120     -5.55181231      0.19908776
  H      0.06966393     -6.13608982      1.85429190
  C     -1.69187844     -5.10679823      1.14674653
  H     -2.17157227     -6.01982701      0.79045331
  H     -2.09480344     -4.86376913      2.13066909
  H     -1.94385910     -4.29316443      0.46269400
  C      0.28771380     -3.64965828      3.56558914
  H     -0.69248527     -3.16842890      3.64288382
  H      1.00517883     -2.96413347      4.02795697
  C      0.25897695     -4.95152518      4.36538399
  H      0.06852234     -4.72197962      5.41542290
  H     -0.53334488     -5.61228972      4.01459501
  H      1.20857191     -5.48276546      4.30127270
  P      0.81234563      4.38301277     -0.16140818
  C     -0.19633437      5.52741888     -1.27903894
  H     -1.24479598      5.47000567     -0.96913200
  H      0.12259280      6.56688959     -1.16408062
  C     -0.09505944      5.13744035     -2.75307801
  H     -0.71954493      5.79535027     -3.35956802
  H      0.93426042      5.21268961     -3.10630509
  H     -0.43506237      4.10866501     -2.89611207
  C      2.52170859      5.06454521     -0.55094779
  H      2.88357794      4.51475103     -1.42660651
  H      2.44945663      6.11646768     -0.84359409
  C      3.55648283      4.93289863      0.56475823
  H      4.54742041      5.18351712      0.18224690
  H      3.32661412      5.60178913      1.39427129
  H      3.57746367      3.91094720      0.94666558
  C      0.43232635      5.14774649      1.50522920
  H      1.14151950      4.72812951      2.22455437
  H     -0.55682266      4.78288401      1.80300801
  C      0.45209187      6.67238320      1.61180145
  H      0.32546622      6.96305626      2.65628279
  H      1.39643670      7.08354834      1.25511238
  H     -0.35931000      7.11650450      1.03551227
  P     -0.94487898      1.02074810      3.93184201
  C     -2.77788622      1.19395199      4.28556131
  H     -3.28741426      0.40202599      3.72820050
  H     -2.97268374      1.01188261      5.34649846
  C     -3.38335866      2.54362072      3.90549636
  H     -4.47155266      2.49364794      3.97053834
  H     -3.03241055      3.33192710      4.57189591
  H     -3.10818412      2.80665040      2.88135071
  C     -0.31560440      2.52952876      4.87152813
  H     -0.60894240      3.41837640      4.30370050
  H     -0.79263689      2.60491163      5.85288511
  C      1.20316104      2.54517938      5.03593461
  H      1.51813113      3.47537724      5.51176732
  H      1.54328262      1.70989302      5.64874863
  H      1.68857760      2.47504788      4.05895058
  C     -0.54480892     -0.36710988      5.13692959
  H      0.49185216     -0.66931686      4.95340537
  H     -1.16778384     -1.21605759      4.83579591
  C     -0.73049114     -0.12388997      6.63455008
  H     -0.52837463     -1.04985070      7.17618261
  H     -0.04320681      0.63868316      6.99943518
  H     -1.74882074      0.18880395      6.86570831
  P     -0.57363867     -0.78870489     -4.18611947
  C     -0.36106735     -2.53276177     -4.86797970
  H     -1.01412996     -3.19165944     -4.28720574
  H     -0.68775781     -2.57557897     -5.91077298
  C      1.06857238     -3.06147155     -4.78311158
  H      1.10441031     -4.09721068     -5.12497104
  H      1.74091163     -2.46890492     -5.40480075
  H      1.42944856     -3.02356044     -3.75241781
  C      0.10101948      0.16431240     -5.67021594
  H      1.11536674     -0.19593174     -5.86928793
  H     -0.49494466     -0.04998731     -6.56224031
  C      0.15825587      1.67361044     -5.44980432
  H      0.54809134      2.16995920     -6.34015117
  H     -0.83179875      2.07528770     -5.22983245
  H      0.81589300      1.90528447     -4.60799745
  C     -2.41433962     -0.57207469     -4.46085634
  H     -2.60809576      0.50356832     -4.49301606
  H     -2.91901612     -0.94895725     -3.56641662
  C     -3.04921002     -1.22570980     -5.68792441
  H     -4.09170273     -0.91038890     -5.76085336
  H     -2.54070097     -0.93183621     -6.60619756
  H     -3.02910102     -2.31232847     -5.60987451
  P     -4.10863537     -0.38620089     -0.32200861
  C     -4.77076708     -2.12754243     -0.09551090
  H     -4.21890294     -2.57223332      0.73934117
  H     -5.82462572     -2.09388553      0.19628963
  C     -4.63322277     -3.03165330     -1.31834883
  H     -4.91825333     -4.05262013     -1.05897931
  H     -5.27120008     -2.68968216     -2.13373360
  H     -3.59760922     -3.03982906     -1.66676558
  C     -5.19707973      0.17982913     -1.75123925
  H     -4.90551870     -0.38339649     -2.64274092
  H     -6.24847956     -0.05248559     -1.56016826
  C     -5.04221837      1.66974116     -2.05037016
  H     -5.62206774      1.93802367     -2.93495542
  H     -5.38565786      2.27715584     -1.21230306
  H     -3.99180551      1.90789139     -2.23965545
  C     -4.96436406      0.43435806      1.13489898
  H     -4.56687495      1.45143440      1.21239220
  H     -4.61922432     -0.09721178      2.02819520
  C     -6.49130290      0.49929873      1.15755385
  H     -6.81667610      0.92508135      2.10856400
  H     -6.87108803      1.13252188      0.35624214
  H     -6.93735977     -0.49037855      1.05888908
  P      4.29268724     -0.00149427     -1.02092438
  C      4.81468389     -0.06521541     -2.82026578
  H      4.63995996      0.92825929     -3.24261397
  H      5.89101957     -0.25817660     -2.86574012
  C      4.10457176     -1.09097269     -3.69769371
  H      4.56147731     -1.11013089     -4.68899235
  H      4.16530673     -2.08856389     -3.26354126
  H      3.05261040     -0.82701667     -3.80482827
  C      5.40497407     -1.39051321     -0.37604332
  H      4.97631317     -2.33238209     -0.73257296
  H      6.41191095     -1.31603361     -0.79611242
  C      5.49246867     -1.43322296      1.14756106
  H      6.01290037     -2.33644048      1.47013268
  H      6.03241071     -0.56648736      1.53091713
  H      4.49129698     -1.43421019      1.58764291
  C      5.27762710      1.52764459     -0.51549511
  H      5.13841756      1.66151604      0.56235115
  H      4.78693842      2.38114719     -0.99513785
  C      6.77257636      1.57682575     -0.83067214
  H      7.18721202      2.51679437     -0.46133172
  H      7.30678198      0.75816594     -0.34907572
  H      6.95220394      1.52546225     -1.90432581

