#B3LYP/6-31+G(d) OPT FREQ

146, Energy =   -192.73164278 au

0 1
 Co     -0.29939265     -2.15509637      0.15317801
 Co      0.74599807      2.14628086     -0.14454545
 Co     -2.01280794      0.38933227     -0.36348026
 Co     -0.16138017      0.23958872      2.06885423
 Co      2.26246653     -0.49705381     -0.00547158
 Co      0.24498001     -0.05053933     -2.32562141
 Te      2.26112558      1.18363188     -1.77285108
 Te     -1.31959643      2.19151746      1.12805494
 Te     -0.96516260      2.02263366     -1.82924864
 Te      1.33718070     -1.67241469      1.91360980
 Te     -2.06468073     -1.17379463      1.49866516
 Te     -1.58258746     -1.56353211     -1.79702221
 Te      2.04164757      1.20112828      1.70958240
 Te      1.35327616     -2.08144935     -1.64261710
  P     -0.33295727     -4.09792142      1.06347594
  C      1.15441523     -5.24382351      1.03655294
  H      1.95059391     -4.76161370      1.61062588
  H      0.91894785     -6.18582714      1.54067503
  C      1.66892654     -5.55388446     -0.36820368
  H      2.61774561     -6.08956730     -0.30840214
  H      0.95682184     -6.17253677     -0.91558929
  H      1.82419206     -4.63095932     -0.93252377
  C     -1.59857218     -5.26259719      0.28336224
  H     -1.30383405     -5.42595008     -0.75806992
  H     -1.59026228     -6.23952400      0.77422081
  C     -3.01301298     -4.68770146      0.29854719
  H     -3.70593803     -5.37436552     -0.19031467
  H     -3.35684087     -4.51371414      1.31873921
  H     -3.03214849     -3.73626588     -0.23584848
  C     -0.77646251     -4.22732831      2.88075185
  H     -1.59639719     -3.52495856      3.06152198
  H      0.08449284     -3.84520699      3.43852878
  C     -1.16764058     -5.59288949      3.44415171
  H     -1.31539096     -5.50563216      4.52218342
  H     -2.09814650     -5.94972814      3.00335533
  H     -0.39115293     -6.33715017      3.26744639
  P      1.77669999      3.93725960      0.41305107
  C      1.21753693      5.41689239     -0.62556239
  H      0.17627764      5.64083401     -0.37224998
  H      1.81023983      6.30451252     -0.38827680
  C      1.31195791      5.14323434     -2.12572618
  H      0.96264137      6.01005623     -2.68903273
  H      2.34031243      4.92856494     -2.41949219
  H      0.69104181      4.28452684     -2.39158110
  C      3.63238357      4.13226648      0.18779278
  H      3.90291555      3.51270381     -0.67437893
  H      3.87138647      5.16704232     -0.07567399
  C      4.49744377      3.71575507      1.37581350
  H      5.54528625      3.67574306      1.07326426
  H      4.40310555      4.42382280      2.19915157
  H      4.19970102      2.72969401      1.73570495
  C      1.48283677      4.62670642      2.13095415
  H      2.01541452      3.98038109      2.83464890
  H      0.41638318      4.49581561      2.34576665
  C      1.86720591      6.08279471      2.39283642
  H      1.76032548      6.29966150      3.45727653
  H      2.90033967      6.27895741      2.10613565
  H      1.21916592      6.76359176      1.84120575
  P     -4.15279737      0.30073658     -0.47944297
  C     -5.12239340     -1.30468788     -0.48884597
  H     -4.69345905     -1.94139012      0.29142494
  H     -6.16316567     -1.11360717     -0.21101960
  C     -5.10595765     -2.06117021     -1.81516738
  H     -5.57045820     -3.04063573     -1.68945755
  H     -5.65178339     -1.51498376     -2.58492776
  H     -4.07821940     -2.20611823     -2.15522790
  C     -5.04006380      1.20251026     -1.87587150
  H     -4.76110066      0.71824037     -2.81644595
  H     -6.12485175      1.10413029     -1.77720236
  C     -4.66220461      2.67981769     -1.96527548
  H     -5.12993989      3.13423997     -2.84019135
  H     -4.98461991      3.22425488     -1.07717579
  H     -3.57800166      2.78621271     -2.05810756
  C     -4.93442594      1.09856640      1.03238143
  H     -4.37394917      2.01564050      1.24167278
  H     -4.73410594      0.42135925      1.86956219
  C     -6.42701372      1.42670958      1.00840091
  H     -6.72489542      1.80956274      1.98627558
  H     -6.65203268      2.18945523      0.26364666
  H     -7.02831365      0.54357331      0.79251685
  P     -0.20664243      0.53020339     -4.34483380
  C     -1.91929476      0.96147600     -4.98275766
  H     -2.30528289      1.77120546     -4.35742010
  H     -1.85154701      1.34680976     -6.00484319
  C     -2.91522947     -0.19736411     -4.96417111
  H     -3.92201280      0.17533297     -5.16070587
  H     -2.66915921     -0.93720664     -5.72646446
  H     -2.90975219     -0.69438230     -3.99253555
  C      0.22766515     -0.77033783     -5.64635306
  H     -0.46253409     -1.60948833     -5.51416090
  H      0.06831218     -0.38201041     -6.65596566
  C      1.65269098     -1.29971337     -5.51319530
  H      1.84113261     -2.06961258     -6.26324975
  H      2.38301496     -0.50070977     -5.64581124
  H      1.79356880     -1.73979734     -4.52312534
  C      0.72809747      2.03866426     -4.95665073
  H      1.72986961      1.99798440     -4.51605999
  H      0.23438823      2.90740869     -4.50825186
  C      0.85503588      2.26097786     -6.46303639
  H      1.34058814      3.22153671     -6.64486491
  H      1.46138166      1.48225439     -6.92504375
  H     -0.12064572      2.27647193     -6.94907986
  P     -0.99855037      0.52931708      4.02015592
  C     -2.78588855      0.99254544      4.34663103
  H     -3.39967076      0.39628678      3.66441497
  H     -3.06662256      0.70189007      5.36324464
  C     -3.11817156      2.47095396      4.15586006
  H     -4.19921379      2.61540712      4.19244785
  H     -2.66091698      3.07929667      4.93650570
  H     -2.75354450      2.81863450      3.18659373
  C     -0.15200865      1.75634259      5.17338404
  H     -0.24714525      2.75007712      4.72393076
  H     -0.65713595      1.79337350      6.14279096
  C      1.33318357      1.46305871      5.37871764
  H      1.78980968      2.24941461      5.98203488
  H      1.48171571      0.50813634      5.88368335
  H      1.84628392      1.42509612      4.41404111
  C     -0.92188903     -1.05858658      5.02788666
  H      0.04682528     -1.52798861      4.82545564
  H     -1.67799284     -1.72497571      4.59884751
  C     -1.12914704     -0.98331832      6.54049707
  H     -1.13410990     -1.99382742      6.95328211
  H     -0.32684380     -0.42496032      7.02169985
  H     -2.07850840     -0.50995238      6.79114245
  P      4.27565787     -1.11145411     -0.38112660
  C      5.20186545     -0.77602241     -1.97436719
  H      5.33214029      0.30701366     -2.06264274
  H      6.19751634     -1.22693720     -1.92797454
  C      4.48895205     -1.27924441     -3.22581885
  H      5.12566579     -1.14398590     -4.10168069
  H      4.23163490     -2.33496550     -3.13792315
  H      3.57198668     -0.70880081     -3.37264082
  C      4.75255098     -2.91641315     -0.15045989
  H      4.09243264     -3.50578197     -0.79446905
  H      5.77615133     -3.09643709     -0.49228443
  C      4.60712354     -3.41016681      1.28803974
  H      4.69306051     -4.49745144      1.32124841
  H      5.38028739     -2.98385933      1.92785196
  H      3.63342695     -3.12478227      1.69415814
  C      5.45050171     -0.26027049      0.81866425
  H      5.09625194     -0.47915756      1.83127416
  H      5.31742314      0.81766749      0.67976820
  C      6.94215178     -0.58494835      0.73023838
  H      7.47271797     -0.06189857      1.52803591
  H      7.12452419     -1.65318818      0.84400661
  H      7.35891733     -0.26143593     -0.22323132

