#B3LYP/6-31+G(d) OPT FREQ

146, Energy =   -192.73009459 au

0 1
 Co     -1.19805824     -1.94301278      0.53950223
 Co      0.96680771      1.55980933     -1.14238629
 Co     -1.82922562      0.35833407     -1.39475884
 Co     -0.94596154      0.94314472      1.50993437
 Co      1.68868303     -0.53514160      1.07263320
 Co      0.89209328     -1.45959428     -1.70435688
 Te      2.76768775     -0.05844317     -1.04865796
 Te     -1.15221623      2.46731733     -0.34540104
 Te     -0.04178707      0.33116542     -3.02890247
 Te     -0.14009399     -1.13096246      2.55710141
 Te     -2.91228354     -0.22559765      0.68690833
 Te     -1.45908765     -1.99563660     -1.90433582
 Te      1.29679933      1.87861359      1.25202491
 Te      1.07048310     -2.77186518      0.35149919
  P      3.39992877     -0.19985568      2.30927934
  C      4.75009709      1.02840126      1.87424039
  H      4.25325736      1.92280730      1.48532401
  H      5.28866123      1.33184249      2.77651838
  C      5.76484026      0.53377080      0.84481129
  H      6.39296047      1.36373388      0.51700471
  H      6.40740692     -0.23875876      1.26747323
  H      5.25039621      0.12465139     -0.02697081
  C      4.44198551     -1.74403367      2.60253966
  H      4.84129187     -2.06670080      1.63585517
  H      5.29770239     -1.52747349      3.24778708
  C      3.62801218     -2.89525783      3.19153798
  H      4.25377974     -3.78348376      3.29216852
  H      3.23134706     -2.63724740      4.17403828
  H      2.78910402     -3.13616874      2.53301434
  C      3.04748939      0.34765403      4.07069338
  H      2.17173444     -0.21193937      4.41465365
  H      2.74007301      1.39682417      4.01013588
  C      4.15605711      0.21462424      5.11480364
  H      3.82364347      0.66621001      6.05129336
  H      4.39060160     -0.83173518      5.30804963
  H      5.06803187      0.72123269      4.79873645
  P      1.68440620      3.25102702     -2.27073949
  C      0.90620404      3.89384228     -3.85452632
  H     -0.16649296      4.01131443     -3.67747429
  H      1.30113582      4.88576051     -4.09292961
  C      1.10442997      2.98404761     -5.06476118
  H      0.55000234      3.37540865     -5.91931219
  H      2.15793402      2.91319881     -5.33639953
  H      0.73482622      1.98016615     -4.84200418
  C      3.48524311      3.32658946     -2.80021719
  H      3.66000132      2.50747075     -3.50514178
  H      3.69333045      4.25830704     -3.33421887
  C      4.46012589      3.17204799     -1.63532278
  H      5.48752741      3.16734567     -2.00268935
  H      4.35201135      3.98338686     -0.91514266
  H      4.27175849      2.22601421     -1.12393756
  C      1.53683874      4.79971729     -1.21376873
  H      1.92880622      4.54791506     -0.22191370
  H      0.46408179      4.97452448     -1.07475355
  C      2.19460444      6.09294821     -1.69480966
  H      1.98300955      6.89052499     -0.98022498
  H      3.27606184      5.98301750     -1.76943311
  H      1.80929559      6.39865437     -2.66736363
  P     -1.59078694      1.41398998      3.50155564
  C     -2.76546033      0.33853337      4.49355916
  H     -2.38460195     -0.68620110      4.43845354
  H     -2.74551519      0.63088535      5.54756567
  C     -4.21420012      0.35885284      4.00890012
  H     -4.78244999     -0.42928638      4.50577967
  H     -4.68715931      1.31639448      4.22837917
  H     -4.25547184      0.18936505      2.93037649
  C     -2.51064087      3.05977927      3.61467293
  H     -3.42796974      2.96989359      3.02436416
  H     -2.81130057      3.27608135      4.64343654
  C     -1.69561555      4.22589066      3.05752856
  H     -2.28431526      5.14417470      3.08922629
  H     -0.78187721      4.37982675      3.63263109
  H     -1.41913614      4.02826201      2.01855956
  C     -0.24323087      1.65520848      4.78539697
  H      0.58753316      2.16730359      4.28907336
  H      0.11871080      0.65392316      5.04014405
  C     -0.57984660      2.40370683      6.07494464
  H      0.28140274      2.36972504      6.74478269
  H     -0.81149042      3.44937054      5.87455962
  H     -1.42830282      1.95307203      6.59001104
  P     -3.45598553      1.55134809     -2.12041801
  C     -4.73511114      0.52306301     -3.06114289
  H     -5.25448248     -0.11928708     -2.34333222
  H     -5.48682016      1.16865448     -3.52316957
  C     -4.10136840     -0.35139558     -4.14143301
  H     -4.86472063     -0.96327817     -4.62469459
  H     -3.61412099      0.26145282     -4.90111991
  H     -3.35229570     -1.01519864     -3.70118308
  C     -3.15939779      2.87058621     -3.43300788
  H     -2.31276816      2.52786379     -4.03721799
  H     -4.02117095      2.93410014     -4.10408989
  C     -2.84509583      4.26895436     -2.90396186
  H     -2.49960163      4.90491185     -3.72083799
  H     -3.72779450      4.72992596     -2.46084589
  H     -2.06546501      4.22220799     -2.14170122
  C     -4.58750341      2.43729887     -0.91945667
  H     -4.01999442      3.26587581     -0.48564227
  H     -4.78335152      1.73979187     -0.09846369
  C     -5.92045174      2.96161325     -1.45307911
  H     -6.40576158      3.56364698     -0.68271638
  H     -5.78147244      3.58517584     -2.33616311
  H     -6.58794766      2.13964047     -1.71122155
  P      2.44264604     -2.62542815     -2.61585271
  C      3.45321763     -1.85927253     -4.00587599
  H      4.07118963     -1.07343230     -3.56111086
  H      4.12746096     -2.60261620     -4.44126578
  C      2.61025245     -1.25106906     -5.12501764
  H      3.25230741     -0.71688584     -5.82735370
  H      2.06965876     -2.02515176     -5.67111393
  H      1.88001924     -0.54807049     -4.71769578
  C      1.82671719     -4.15327631     -3.54590883
  H      1.23311587     -3.80622975     -4.39765341
  H      2.66100862     -4.72996872     -3.95374104
  C      0.94835522     -5.05413853     -2.68215416
  H      0.61666424     -5.92233282     -3.25397742
  H      1.49125336     -5.40256953     -1.80279023
  H      0.06677307     -4.50206102     -2.34873894
  C      3.84311486     -3.33583354     -1.59057149
  H      3.39536974     -3.80412405     -0.70915054
  H      4.42434066     -2.48368077     -1.22398196
  C      4.79200264     -4.33759127     -2.24698116
  H      5.58402716     -4.59286022     -1.54046658
  H      4.27131926     -5.25622232     -2.51665936
  H      5.25690116     -3.92489237     -3.14216403
  P     -2.67745570     -3.43849737      0.92660771
  C     -2.06397536     -5.17970266      1.32107809
  H     -1.52843656     -5.14330258      2.27539771
  H     -2.91139432     -5.85922304      1.44921709
  C     -1.12961701     -5.75275164      0.25826353
  H     -0.80640295     -6.75522656      0.54362727
  H     -1.62635946     -5.81063130     -0.71098434
  H     -0.24499471     -5.11938316      0.15943940
  C     -4.01635172     -3.91359386     -0.29617143
  H     -3.51504132     -4.28645790     -1.19483203
  H     -4.61514891     -4.73742546      0.10456524
  C     -4.94494445     -2.77308654     -0.70369027
  H     -5.69948676     -3.13848250     -1.40255749
  H     -5.44963386     -2.34573744      0.16268585
  H     -4.37460572     -1.98269119     -1.19085632
  C     -3.68438696     -3.12503188      2.48118084
  H     -4.31338206     -2.25388465      2.27632912
  H     -2.97875787     -2.81238283      3.25898920
  C     -4.55740573     -4.25244315      3.03114370
  H     -5.13878353     -3.87691791      3.87530164
  H     -5.25239842     -4.62063110      2.27649318
  H     -3.95028475     -5.08644086      3.38249810

