#B3LYP/6-31+G(d) OPT FREQ

146, Energy =   -192.73160861 au

0 1
 Co     -0.24905748     -2.15963983      0.15617372
 Co      0.70251374      2.16216613     -0.14416893
 Co     -2.02025089      0.34754872     -0.35300581
 Co     -0.15596368      0.23411545      2.07160354
 Co      2.27757577     -0.44864439     -0.01236166
 Co      0.24090098     -0.04331695     -2.32265461
 Te      2.23370023      1.23337164     -1.77680071
 Te     -1.35807449      2.16179356      1.13658693
 Te     -1.01202741      2.00132004     -1.82228708
 Te      1.38321572     -1.64471521      1.90926645
 Te     -2.03213764     -1.21815683      1.50689063
 Te     -1.55126553     -1.59554536     -1.78902514
 Te      2.02383759      1.24330073      1.70430221
 Te      1.39419580     -2.04957862     -1.64636222
  P     -4.15978506      0.22328915     -0.45590730
  C     -5.10216336     -1.39829359     -0.46267682
  H     -4.66567821     -2.02476776      0.32167208
  H     -6.14714718     -1.22356547     -0.18978531
  C     -5.06732333     -2.15915053     -1.78612050
  H     -5.51536438     -3.14604379     -1.65884571
  H     -5.61924114     -1.62506827     -2.56002598
  H     -4.03584934     -2.28743737     -2.12172270
  C     -5.07403060      1.11253597     -1.84301539
  H     -4.79619543      0.63404928     -2.78691056
  H     -6.15613599      0.99645627     -1.73436846
  C     -4.72113482      2.59591545     -1.93369034
  H     -5.20484921      3.04400499     -2.80317720
  H     -5.04367758      3.13363194     -1.04153326
  H     -3.63976165      2.72010523     -2.03692237
  C     -4.94459481      1.00188684      1.06415944
  H     -4.39628039      1.92584889      1.27527784
  H     -4.72970645      0.32310350      1.89644964
  C     -6.44190658      1.30848408      1.05101817
  H     -6.73933629      1.68025077      2.03332645
  H     -6.68227804      2.07317177      0.31306288
  H     -7.03176040      0.41828273      0.83252234
  P      4.29934092     -1.03347036     -0.39073712
  C      5.21948802     -0.67473945     -1.98265071
  H      5.33444016      0.41061812     -2.06396423
  H      6.22158818     -1.11152586     -1.93977310
  C      4.51315076     -1.17988594     -3.23697210
  H      5.14533706     -1.02505542     -4.11289346
  H      4.27582688     -2.24097277     -3.15789984
  H      3.58550636     -0.62507483     -3.37678870
  C      4.79832251     -2.83354955     -0.17129273
  H      4.13890219     -3.42741731     -0.81180549
  H      5.82074728     -3.00131697     -0.52270302
  C      4.67052554     -3.33416342      1.26660346
  H      4.76411730     -4.42095771      1.29451056
  H      5.44706657     -2.90535836      1.90060342
  H      3.69896448     -3.05706083      1.68347628
  C      5.46672246     -0.17522669      0.81165759
  H      5.11245151     -0.39644191      1.82370406
  H      5.32788864      0.90199379      0.67270348
  C      6.96047612     -0.49121749      0.72516332
  H      7.48668642      0.03231956      1.52551967
  H      7.14887234     -1.55865557      0.83615408
  H      7.37735423     -0.16279891     -0.22655575
  P     -0.99063906      0.50695435      4.02650127
  C     -2.78634910      0.93231483      4.35840420
  H     -3.38898638      0.32637947      3.67482112
  H     -3.05946942      0.63177236      5.37421121
  C     -3.14866538      2.40450592      4.17412692
  H     -4.23269457      2.52612394      4.20591746
  H     -2.70812444      3.01781834      4.96053738
  H     -2.78677208      2.76516316      3.20851653
  C     -0.16710068      1.75180457      5.17716819
  H     -0.28509089      2.74331515      4.72823728
  H     -0.67000439      1.77770189      6.14809762
  C      1.32468153      1.49067823      5.37797053
  H      1.76534005      2.28532893      5.98230794
  H      1.49543237      0.53798756      5.88012893
  H      1.83605077      1.46637379      4.41194093
  C     -0.87774833     -1.07876538      5.03425817
  H      0.09863173     -1.52971425      4.82686011
  H     -1.62335948     -1.75958617      4.60955950
  C     -1.07840710     -1.00665279      6.54791282
  H     -1.06709338     -2.01717060      6.96053004
  H     -0.28151848     -0.43716201      7.02503405
  H     -2.03297951     -0.54663322      6.80354235
  P     -0.24944078     -4.10194177      1.06818754
  C      1.25359983     -5.22698239      1.02380509
  H      2.04768595     -4.73755700      1.59466110
  H      1.03464658     -6.17512531      1.52385718
  C      1.76136915     -5.52152257     -0.38671438
  H      2.71507046     -6.04955975     -0.33765562
  H      1.05082394     -6.14146326     -0.93467432
  H      1.90502755     -4.59275920     -0.94442257
  C     -1.50647408     -5.28685426      0.30486666
  H     -1.22533897     -5.44267017     -0.74150235
  H     -1.47217781     -6.26454495      0.79322760
  C     -2.93123657     -4.73920990      0.34387013
  H     -3.61915413     -5.44057082     -0.13101962
  H     -3.26038813     -4.56947776      1.36959039
  H     -2.97858242     -3.78965841     -0.19185763
  C     -0.66935196     -4.23598987      2.89060793
  H     -1.49943478     -3.54780821      3.07926522
  H      0.19104871     -3.83733995      3.43750485
  C     -1.02969277     -5.60657778      3.46212514
  H     -1.17225467     -5.51718085      4.54071215
  H     -1.95570220     -5.98399027      3.02909551
  H     -0.23952126     -6.33584843      3.28370137
  P     -0.21914616      0.53083724     -4.34170590
  C     -1.93895451      0.92922309     -4.98146871
  H     -2.33417134      1.74428426     -4.36891026
  H     -1.87910766      1.29717052     -6.01042783
  C     -2.91916131     -0.24224203     -4.94015902
  H     -3.92920032      0.11108493     -5.15482514
  H     -2.65631678     -0.99891140     -5.68002090
  H     -2.91500536     -0.71333908     -3.95582379
  C      0.24144954     -0.75944701     -5.64448234
  H     -0.43171981     -1.61255391     -5.51365470
  H      0.07435529     -0.37298739     -6.65358012
  C      1.67699343     -1.25992218     -5.51239258
  H      1.88136393     -2.02371706     -6.26452638
  H      2.39072320     -0.44568637     -5.64278230
  H      1.82681544     -1.69974256     -4.52351635
  C      0.68787445      2.05673429     -4.95165127
  H      1.69471348      2.02614843     -4.52205918
  H      0.18749206      2.91503912     -4.49082740
  C      0.79570029      2.29333900     -6.45733658
  H      1.26985680      3.26021841     -6.63578896
  H      1.40428071      1.52483513     -6.93321195
  H     -0.18542909      2.30383663     -6.93227603
  P      1.68537347      3.97832443      0.41898898
  C      1.07543584      5.44696760     -0.60628098
  H      0.02841795      5.63516884     -0.34761457
  H      1.63993820      6.35154031     -0.36429517
  C      1.17328860      5.18806468     -2.10887145
  H      0.79178587      6.04645401     -2.66414769
  H      2.20734203      5.01178539     -2.40808387
  H      0.58156128      4.31031013     -2.37911680
  C      3.53224230      4.23042145      0.17932613
  H      3.80979627      3.64428690     -0.70368990
  H      3.73974796      5.27889453     -0.05528767
  C      4.42179824      3.80276433      1.34495508
  H      5.46775322      3.81061810      1.03341046
  H      4.30950778      4.47695590      2.19412448
  H      4.16171515      2.79484083      1.67187642
  C      1.38724130      4.65018143      2.14309365
  H      1.93255877      4.00666970      2.83960970
  H      0.32375715      4.50137364      2.36088741
  C      1.75069429      6.10969189      2.41550914
  H      1.63649175      6.31823036      3.48085452
  H      2.78235215      6.32130858      2.13463062
  H      1.09608577      6.78552634      1.86559273

