#B3LYP/6-31+G(d) OPT FREQ

146, Energy =   -192.73437940 au

0 1
 Co      0.90737129     -1.94664167     -0.74060104
 Co     -1.03113658      1.67529948      0.76682785
 Co     -1.98296106     -0.98838451     -0.88585301
 Co     -0.76971970     -1.12614031      1.92278434
 Co      1.78937070      0.47163012      0.84110101
 Co      0.15176986      0.91097130     -1.95527764
 Te      1.02627488      2.46921999     -0.31628102
 Te     -2.79529954      0.02671910      1.15300820
 Te     -2.18958184      1.38126738     -1.35627448
 Te      1.50424630     -1.83736802      1.61579057
 Te     -1.03868323     -2.91828460      0.33075147
 Te     -0.38785241     -1.33490880     -2.69654474
 Te      0.26687362      0.91063851      2.69023377
 Te      2.28818024     -0.07649869     -1.49103596
  P     -1.16145558      3.64441583      1.61501599
  C     -2.60138091      3.84917580      2.82121096
  H     -2.41137941      3.21064437      3.68976093
  H     -2.66083411      4.87949154      3.18165192
  C     -3.94748127      3.46645000      2.20887954
  H     -4.73493074      3.54024941      2.96070600
  H     -4.19832676      4.12656025      1.37753646
  H     -3.91877442      2.43862995      1.83825787
  C     -1.56221210      5.09292320      0.47312575
  H     -2.19939920      4.70017250     -0.32625345
  H     -2.14979442      5.84678880      1.00519785
  C     -0.34626635      5.76643859     -0.16054134
  H     -0.65993189      6.39478427     -0.99569403
  H      0.17931072      6.39081235      0.56173342
  H      0.35277868      5.01385264     -0.53217400
  C      0.21840876      4.36750265      2.65394621
  H      1.07541044      4.52318456      1.99185834
  H      0.51631759      3.59187523      3.36560604
  C     -0.06089458      5.65737760      3.42545651
  H      0.86961177      6.02069711      3.86556314
  H     -0.45894253      6.43781125      2.77753960
  H     -0.77113424      5.48296324      4.23352056
  P      2.59295869     -3.15901182     -1.26769145
  C      3.21414093     -3.21393125     -3.04094504
  H      3.57641296     -2.21073342     -3.28742821
  H      4.06482176     -3.89722101     -3.12303855
  C      2.15518299     -3.62089596     -4.06334428
  H      2.55933162     -3.53454232     -5.07330770
  H      1.83382644     -4.65112484     -3.90593598
  H      1.28030596     -2.97113655     -3.98243316
  C      2.34363601     -5.00994806     -0.99473502
  H      1.53787812     -5.33733080     -1.65968466
  H      3.23833135     -5.57017445     -1.27949451
  C      1.95371583     -5.35604356      0.44050703
  H      1.82196824     -6.43429467      0.54460275
  H      2.71789192     -5.02776933      1.14603934
  H      1.01344385     -4.86524017      0.70230192
  C      4.23384264     -2.85464712     -0.41300304
  H      4.02187049     -2.63366041      0.63758018
  H      4.64360616     -1.93732364     -0.84585912
  C      5.30049117     -3.94695863     -0.47752974
  H      6.22333633     -3.57170348     -0.03130601
  H      4.99134838     -4.83170268      0.07840019
  H      5.51491030     -4.23890117     -1.50562727
  P     -3.07378969     -2.58261495     -1.82597962
  C     -2.37649313     -4.16018460     -2.56565690
  H     -1.44407827     -4.37664555     -2.03683910
  H     -3.05416696     -4.99247340     -2.35562089
  C     -2.08948402     -4.13120344     -4.06556684
  H     -1.53908650     -5.03038465     -4.34842513
  H     -3.01115847     -4.09530731     -4.64623167
  H     -1.48041560     -3.26135113     -4.31496480
  C     -4.15642846     -1.98012596     -3.25384597
  H     -3.49326091     -1.65947274     -4.06239141
  H     -4.78045115     -2.78698144     -3.64677315
  C     -5.03788445     -0.79844348     -2.85413750
  H     -5.55539361     -0.40317196     -3.72937038
  H     -5.78317944     -1.09528301     -2.11598749
  H     -4.42681005     -0.00020895     -2.42416442
  C     -4.38606535     -3.31801778     -0.68049457
  H     -4.80259444     -2.49503983     -0.09013626
  H     -3.84582970     -3.95707480      0.02564861
  C     -5.53673927     -4.11177949     -1.29827800
  H     -6.13405588     -4.56067434     -0.50239296
  H     -6.18821126     -3.46672425     -1.88721928
  H     -5.16997155     -4.91258584     -1.94072396
  P     -1.83624287     -1.28038747      3.77423823
  C     -0.72506261     -1.81442260      5.20396930
  H     -0.02149721     -0.99833991      5.39826359
  H     -1.30996204     -1.96847773      6.11477302
  C      0.06300810     -3.08857942      4.90518666
  H      0.74587370     -3.30739332      5.72776767
  H     -0.60735874     -3.93918042      4.77517164
  H      0.64985596     -2.96814376      3.99079991
  C     -3.16884204     -2.60292145      3.95411575
  H     -2.77584373     -3.51671668      3.49640165
  H     -3.34540080     -2.82690079      5.01041619
  C     -4.49863858     -2.25924606      3.28689382
  H     -5.15319340     -3.13248293      3.28542316
  H     -5.00253761     -1.44935536      3.81478708
  H     -4.33912793     -1.94121015      2.25539177
  C     -2.66555275      0.20088988      4.56481526
  H     -3.48048084      0.50689489      3.90316668
  H     -1.93509118      1.01631564      4.55303493
  C     -3.21149280      0.04876561      5.98399462
  H     -3.74355220      0.96061684      6.26150325
  H     -3.90797631     -0.78637795      6.05626198
  H     -2.40719050     -0.10555450      6.70288783
  P      3.67819312      1.08444197      1.68093049
  C      5.01844089      1.81320279      0.58099870
  H      4.57336862      2.64844516      0.02989462
  H      5.82449384      2.22537847      1.19502626
  C      5.62416690      0.83285676     -0.42038068
  H      6.36203027      1.34317176     -1.04173595
  H      6.11517743      0.00375424      0.09011048
  H      4.84389823      0.42983133     -1.07018447
  C      4.73601541     -0.07426496      2.71373196
  H      5.02508838     -0.91903223      2.08045211
  H      5.66044446      0.42010488      3.02624450
  C      4.00603263     -0.61952023      3.93972728
  H      4.65166877     -1.31058146      4.48379419
  H      3.70967538      0.18403097      4.61422144
  H      3.10884195     -1.15957680      3.62796439
  C      3.47336608      2.53926743      2.85113984
  H      2.67689188      2.27331963      3.55363003
  H      3.08090302      3.36550387      2.24788125
  C      4.68332758      3.03931000      3.64036872
  H      4.38471934      3.89819993      4.24429402
  H      5.06380721      2.26943001      4.31098823
  H      5.49080767      3.35471113      2.97997225
  P     -0.37511624      2.09669118     -3.67020391
  C     -1.76813978      1.66988993     -4.85255525
  H     -2.67454336      1.54932583     -4.25163989
  H     -1.94589339      2.50262869     -5.53940982
  C     -1.54497942      0.40217454     -5.67579342
  H     -2.46344370      0.13671615     -6.20213336
  H     -0.75477485      0.54890431     -6.41276827
  H     -1.26232349     -0.42984670     -5.02724881
  C      1.04515537      2.24634856     -4.90686610
  H      1.25329214      1.24631405     -5.29989981
  H      0.76861221      2.87391885     -5.75839031
  C      2.32002113      2.78385536     -4.25855007
  H      3.13590120      2.79272803     -4.98309939
  H      2.17469677      3.79933221     -3.88826269
  H      2.61044428      2.14903386     -3.41739331
  C     -0.77358700      3.90119329     -3.34940917
  H     -0.03718982      4.26188881     -2.62531092
  H     -1.74207890      3.92145476     -2.83917003
  C     -0.81045928      4.87276042     -4.52879169
  H     -1.09249776      5.86316976     -4.16688789
  H      0.16594263      4.95243782     -5.00584458
  H     -1.53926527      4.56581101     -5.27871488

