#B3LYP/6-31+G(d) OPT FREQ

146, Energy =   -192.73009575 au

0 1
 Co     -0.19708579     -1.97422153      0.05544307
 Co      0.61866802      2.37880383     -0.52923319
 Co     -2.08052499      0.56232688     -0.25975256
 Co     -0.06593525      0.41346587      2.00469031
 Co      2.22490576     -0.12227942     -0.04380076
 Co     -0.04806467      0.04418443     -2.41315998
 Te      2.05830852      1.16925187     -2.10180207
 Te     -1.16316906      2.40098645      1.08807936
 Te     -1.30036499      2.10010253     -1.97146169
 Te      1.42250952     -1.49087955      1.79903816
 Te     -1.91874848     -1.09064755      1.51637095
 Te     -1.81696653     -1.43261888     -1.65353710
 Te      1.85255973      1.77787226      1.46434157
 Te      1.46840803     -1.71799555     -1.73159280
  P     -0.13261393     -4.06682859      0.50763424
  C      1.39196619     -5.13073731      0.25639972
  H      2.20429841     -4.69022948      0.84144635
  H      1.21967022     -6.13563688      0.65319727
  C      1.83738502     -5.24657438     -1.19980444
  H      2.79022774     -5.77521644     -1.25728236
  H      1.10118802     -5.79127994     -1.79179252
  H      1.96394140     -4.25266598     -1.63733842
  C     -1.40086482     -5.16291615     -0.34854245
  H     -1.19570769     -5.13577791     -1.42351522
  H     -1.29483306     -6.20369902     -0.02957986
  C     -2.83863858     -4.69893830     -0.12178759
  H     -3.53177539     -5.34806260     -0.65927656
  H     -3.09774967     -4.71498795      0.93732604
  H     -2.96294835     -3.67910443     -0.49279124
  C     -0.47427329     -4.44477707      2.31417128
  H     -1.32132776     -3.82011647      2.61750515
  H      0.39144047     -4.07361222      2.87307665
  C     -0.75310825     -5.88943874      2.72721856
  H     -0.87293974     -5.93503947      3.81126220
  H     -1.66930017     -6.26160669      2.26960687
  H      0.06775699     -6.55006826      2.44844997
  P     -0.59148055      0.26610695      4.07465696
  C     -2.19617417      0.96031348      4.75631419
  H     -3.01829117      0.46400570      4.23187450
  H     -2.29873861      0.71561664      5.81759221
  C     -2.33134945      2.47232946      4.58302166
  H     -3.34559470      2.78846732      4.83201989
  H     -1.63430598      3.00226622      5.23301066
  H     -2.12142274      2.75891520      3.54907132
  C      0.60451897      1.07922501      5.28359531
  H      0.58252186      2.15852580      5.10238143
  H      0.28284397      0.92301599      6.31697516
  C      2.04216403      0.59382063      5.11068544
  H      2.69713084      1.09076934      5.82815871
  H      2.11688631     -0.48398256      5.25941296
  H      2.39206061      0.82861464      4.10327377
  C     -0.69428153     -1.47498798      4.76457062
  H      0.15318849     -2.03340253      4.35353627
  H     -1.59416966     -1.92353650      4.33054635
  C     -0.72113983     -1.66601288      6.28040697
  H     -0.86542042     -2.72435850      6.50538413
  H      0.21756447     -1.34888428      6.73398571
  H     -1.53607604     -1.10697910      6.74032302
  P      1.76968372      4.07321199     -1.15920271
  C      1.43230745      4.81581315     -2.85294439
  H      0.35234517      4.75351278     -3.02231040
  H      1.69882566      5.87621368     -2.86205974
  C      2.15376144      4.12883466     -4.01045155
  H      1.78390912      4.51666632     -4.96101677
  H      3.22839056      4.30576746     -3.95892587
  H      1.98626491      3.05095546     -3.98246781
  C      3.63980716      4.20799614     -1.12609541
  H      4.03071633      3.36030887     -1.69648451
  H      3.95802537      5.11803049     -1.64435954
  C      4.26464542      4.18637229      0.26860246
  H      5.35005639      4.10677945      0.18588135
  H      4.02741989      5.09588848      0.82084876
  H      3.89373825      3.33474996      0.84225288
  C      1.27351525      5.53436111     -0.06566404
  H      1.50620477      5.24494824      0.96470210
  H      0.18198091      5.61396068     -0.11714151
  C      1.88116267      6.91028031     -0.34218114
  H      1.55791670      7.60827744      0.43235937
  H      2.97008190      6.87420428     -0.33449536
  H      1.55493269      7.30057200     -1.30594048
  P     -1.15285410      0.08468812     -4.25522710
  C     -1.02498784     -1.53151644     -5.22591080
  H     -1.59879277     -2.28859553     -4.68225524
  H     -1.46890975     -1.42859699     -6.21966092
  C      0.41589212     -2.01446473     -5.38023168
  H      0.43423528     -2.99324476     -5.86228291
  H      0.99555340     -1.31766152     -5.98730740
  H      0.89656564     -2.10064621     -4.40162623
  C     -0.50482717      1.24851561     -5.59941052
  H      0.58816816      1.23200454     -5.53622126
  H     -0.77073434      0.86924696     -6.59042098
  C     -0.97810362      2.69456634     -5.47491636
  H     -0.38998757      3.33928984     -6.13015695
  H     -2.02861790      2.78766276     -5.75100835
  H     -0.86646123      3.04473857     -4.44659454
  C     -2.99712605      0.38904010     -4.37593946
  H     -3.17548871      1.42516145     -4.07643566
  H     -3.48229977     -0.23752226     -3.62246278
  C     -3.66919568      0.13903156     -5.72554918
  H     -4.70724314      0.47305557     -5.67500324
  H     -3.17426391      0.68702084     -6.52723228
  H     -3.66716103     -0.92154586     -5.97614703
  P      4.22782827     -0.51916235      0.59386051
  C      5.59753033      0.34908814     -0.37096079
  H      5.48441704      1.42881546     -0.23180963
  H      6.57822615      0.07188163      0.02501408
  C      5.56713622      0.03757837     -1.86601301
  H      6.34912997      0.59862392     -2.38026386
  H      5.72628103     -1.02615699     -2.04693128
  H      4.60162262      0.32166447     -2.29202602
  C      4.87190002     -2.28300120      0.44524453
  H      4.41463251     -2.71081105     -0.45338314
  H      5.95331212     -2.27676798      0.27927930
  C      4.55875906     -3.19540959      1.62968943
  H      4.75161267     -4.23484245      1.35907698
  H      5.17384904     -2.94505452      2.49396949
  H      3.50975487     -3.09648257      1.91761114
  C      4.72886747     -0.06665725      2.34026585
  H      4.14301568     -0.69886747      3.01472461
  H      4.38605020      0.95891421      2.51057385
  C      6.20750086     -0.16246704      2.71613420
  H      6.31576888     -0.01255791      3.79187175
  H      6.62433916     -1.13724702      2.46403729
  H      6.78998068      0.60526821      2.20715677
  P     -4.18074171      0.70705508      0.12443299
  C     -5.26052391     -0.82843883      0.09804736
  H     -4.80628576     -1.55131047      0.78362278
  H     -6.25592501     -0.59339646      0.48641200
  C     -5.41584155     -1.47851531     -1.27508338
  H     -5.96460718     -2.41712695     -1.18129749
  H     -5.95935746     -0.82611897     -1.95918413
  H     -4.43466803     -1.69267024     -1.70531804
  C     -5.20075313      1.81309688     -1.00908590
  H     -5.11909215      1.41482063     -2.02557778
  H     -6.25961274      1.77957886     -0.73747087
  C     -4.71599475      3.26147979     -1.02079900
  H     -5.31098802      3.85019970     -1.72089630
  H     -4.79564506      3.71305965     -0.03141804
  H     -3.67023835      3.30244235     -1.33687010
  C     -4.65045069      1.36368646      1.81678231
  H     -4.00928507      2.22773389      2.01733009
  H     -4.35918473      0.59034663      2.53537280
  C     -6.10400019      1.75776413      2.07784151
  H     -6.21280331      2.05106406      3.12360862
  H     -6.40154132      2.60206263      1.45667565
  H     -6.78487545      0.92863863      1.88560440

