#B3LYP/6-31+G(d) OPT FREQ

146, Energy =   -192.73174098 au

0 1
 Co      0.30386937     -2.22940295      0.11351747
 Co     -0.05648416      2.08946658     -0.38639423
 Co     -2.11156926     -0.35991827      0.04748330
 Co      0.04531126      0.37074541      2.12828447
 Co      2.34022739      0.03771797      0.12162567
 Co      0.11888033     -0.28473738     -2.24181994
 Te      1.82510178      1.40315842     -1.78650825
 Te     -1.80687758      1.71599837      1.25427222
 Te     -1.81239389      1.14434275     -1.79725167
 Te      1.67685679     -1.44943075      1.94756193
 Te     -1.24263615     -1.70388517      1.90563049
 Te     -1.43698647     -2.02406620     -1.57940200
 Te      1.66691445      2.02265163      1.31842699
 Te      1.99994493     -1.65147118     -1.58161100
  P      0.64674191     -4.18209969     -0.71322931
  C      1.07237614     -4.75597250     -2.44687248
  H      2.10294711     -4.44844143     -2.64508558
  H      1.04675524     -5.85000655     -2.46590686
  C      0.18955134     -4.23699469     -3.57738613
  H      0.45898995     -4.73055014     -4.51315269
  H     -0.86355882     -4.42558778     -3.37141238
  H      0.32625466     -3.16279960     -3.69897696
  C     -0.71941679     -5.43756899     -0.34714060
  H     -1.59062982     -5.14083894     -0.93923893
  H     -0.43147881     -6.43965497     -0.67691799
  C     -1.11561092     -5.48143364      1.12658844
  H     -2.00225409     -6.10327569      1.26017028
  H     -0.30891695     -5.89259238      1.73480282
  H     -1.33976169     -4.47512640      1.49145138
  C      2.11716244     -4.96126928      0.18171647
  H      1.99366472     -4.75080848      1.24918275
  H      3.00228794     -4.40203159     -0.13939368
  C      2.38576952     -6.45518922      0.00147474
  H      3.26475749     -6.73544726      0.58516231
  H      1.54373540     -7.05352441      0.34843369
  H      2.57967351     -6.69993750     -1.04258404
  P     -0.11533045      0.84925849      4.22413452
  C     -1.81362587      0.97190096      5.02035118
  H     -2.40161819      0.11609377      4.67342371
  H     -1.73258545      0.88355678      6.10749755
  C     -2.56870679      2.25796167      4.69079338
  H     -3.59792611      2.18841957      5.04662862
  H     -2.09631241      3.12103951      5.16058212
  H     -2.58619421      2.41825266      3.60932521
  C      0.67514709      2.34696088      5.03573491
  H      0.23538911      3.24243077      4.58564326
  H      0.42928431      2.37413039      6.10147762
  C      2.18938464      2.41702201      4.85686860
  H      2.58068051      3.32321714      5.32199398
  H      2.68318560      1.55410057      5.30454362
  H      2.43152078      2.44222164      3.79104202
  C      0.59047828     -0.55650706      5.25490071
  H      1.58735117     -0.77620000      4.85845615
  H     -0.01988589     -1.43836702      5.02926089
  C      0.68560521     -0.39214246      6.77176028
  H      1.08052358     -1.31180242      7.20745318
  H      1.35554769      0.42448408      7.03905071
  H     -0.29077768     -0.19945137      7.21596702
  P     -0.41119382      4.18020029     -0.67593402
  C      0.32909357      5.12703274     -2.12416706
  H     -0.09546027      4.72231716     -3.04816134
  H      0.04505937      6.18220745     -2.07494814
  C      1.85161009      5.02831149     -2.19513255
  H      2.21629707      5.51019585     -3.10365330
  H      2.31526312      5.51186183     -1.33457266
  H      2.16225587      3.97992100     -2.21055638
  C      0.10703509      5.35097505      0.69662387
  H      1.19330612      5.26617326      0.80335659
  H     -0.10927954      6.38703331      0.41959783
  C     -0.52992123      5.04420344      2.04999805
  H     -0.18033005      5.75789865      2.79792117
  H     -1.61738470      5.09882263      1.99761131
  H     -0.25270450      4.04045433      2.37380628
  C     -2.22087039      4.62067477     -0.89978993
  H     -2.76298968      4.15682672     -0.06864924
  H     -2.55793068      4.10284675     -1.80466173
  C     -2.61248329      6.09495359     -0.99032851
  H     -3.69346398      6.17202761     -1.12082511
  H     -2.34136263      6.63212775     -0.08172428
  H     -2.13268261      6.58229373     -1.83891194
  P     -0.18781037      0.35815409     -4.26476052
  C     -1.79288593     -0.02524293     -5.16438692
  H     -2.58120714      0.56218231     -4.68326930
  H     -1.72971974      0.30084540     -6.20673618
  C     -2.19064535     -1.49932926     -5.13815012
  H     -3.17048060     -1.62935167     -5.60067066
  H     -1.46755757     -2.10873107     -5.68158526
  H     -2.24100705     -1.86262746     -4.10877883
  C      1.02116150     -0.38464175     -5.51258518
  H      0.84309680     -1.46417875     -5.54746184
  H      0.83087207      0.00084995     -6.51788776
  C      2.48236037     -0.14741736     -5.13853136
  H      3.13990099     -0.60289942     -5.88082031
  H      2.70478362      0.91890816     -5.08270957
  H      2.69791277     -0.59352147     -4.16471463
  C     -0.06327036      2.18613839     -4.66262511
  H      0.84032838      2.56147189     -4.17332021
  H     -0.90954541      2.67088816     -4.16505238
  C     -0.03868734      2.61840810     -6.12815167
  H     -0.02542566      3.70883599     -6.17733900
  H      0.85150812      2.24645077     -6.63484886
  H     -0.91855189      2.26577183     -6.66594675
  P      4.30016078     -0.26917869      0.92650143
  C      5.59142159      0.77276532      0.01935111
  H      5.39515345      1.82716913      0.23919689
  H      6.59765232      0.54516143      0.38158782
  C      5.55230640      0.56821485     -1.49439932
  H      6.28891969      1.21125284     -1.97880041
  H      5.77227650     -0.46837904     -1.75348312
  H      4.56293760      0.81962675     -1.88510155
  C      5.15102442     -1.94039862      0.78037493
  H      4.80416719     -2.38529554     -0.15866806
  H      6.23271455     -1.80433786      0.68702771
  C      4.87368572     -2.92543093      1.91436673
  H      5.25080385     -3.91393002      1.64665465
  H      5.35871652     -2.60925567      2.83788482
  H      3.80103107     -2.99909221      2.10072581
  C      4.67551457      0.23115624      2.69060205
  H      4.13208109     -0.45544878      3.34660410
  H      4.22523225      1.21772678      2.83996695
  C      6.14093835      0.28952763      3.12198867
  H      6.19364100      0.47352997      4.19659027
  H      6.65761333     -0.64638324      2.91034147
  H      6.66650796      1.09760571      2.61353698
  P     -4.00083002     -1.01838793      0.82222610
  C     -4.49803779     -2.82466195      0.92830777
  H     -3.76202966     -3.32473134      1.56517560
  H     -5.47029486     -2.92072212      1.42099513
  C     -4.55942767     -3.54281001     -0.41884406
  H     -4.69064088     -4.61485929     -0.26271484
  H     -5.39317625     -3.17598786     -1.01849512
  H     -3.63569272     -3.38262053     -0.98008608
  C     -5.46436107     -0.35869537     -0.17288654
  H     -5.40524515     -0.78729754     -1.17832121
  H     -6.41501149     -0.68454246      0.25778465
  C     -5.44634673      1.16399276     -0.29648627
  H     -6.28405332      1.50187327     -0.90872746
  H     -5.51782277      1.63925585      0.68257215
  H     -4.51722990      1.49130468     -0.76979719
  C     -4.45330372     -0.47774295      2.55963080
  H     -4.11460206      0.55681414      2.67139342
  H     -3.84051999     -1.07864283      3.23946173
  C     -5.91421630     -0.56464485      2.99969326
  H     -5.98831063     -0.28223604      4.05144906
  H     -6.54095498      0.11453480      2.42246020
  H     -6.30600000     -1.57596641      2.89131542

