#B3LYP/6-31+G(d) OPT FREQ

146, Energy =   -192.69583777 au

0 1
 Co     -0.81188057     -2.71088540      0.02449767
 Co      0.30032111      1.61809606     -0.18959197
 Co     -2.34617218      0.08975764     -0.11727593
 Co     -0.50090608     -0.26068499      2.30127169
 Co      1.72852444     -1.18031786      0.60221814
 Co      0.06690753     -0.70675640     -2.09223966
 Te      2.11672277      0.35688734     -1.24094743
 Te     -1.52087101      1.75960596      1.43218310
 Te     -1.34568127      1.27225313     -1.95683089
 Te      0.37017603     -2.53504013      2.14637048
 Te     -2.33721375     -1.68837672      1.57555603
 Te     -2.13236296     -1.69830913     -1.74649670
 Te      1.55640524      0.95917254      1.75066918
 Te      1.26184693     -2.64178982     -1.27121124
  P     -4.37750462      0.28222922      0.56630731
  C     -5.59849811     -1.13832491      0.38394596
  H     -5.24566798     -1.95243674      1.02451712
  H     -6.58476174     -0.83910504      0.75186160
  C     -5.74530150     -1.66209852     -1.04349159
  H     -6.36056139     -2.56339339     -1.04796221
  H     -6.21759692     -0.91815330     -1.68609029
  H     -4.76637936     -1.90700064     -1.46369679
  C     -5.36693420      1.60236155     -0.35451339
  H     -5.46228790      1.28071540     -1.39633993
  H     -6.38023979      1.68546495      0.04691778
  C     -4.68541819      2.96744411     -0.33309363
  H     -5.29415484      3.70457270     -0.85907877
  H     -4.52468509      3.31218948      0.68909638
  H     -3.71542280      2.90093648     -0.82841688
  C     -4.72612530      0.70727744      2.36011219
  H     -3.96072249      1.42013414      2.68207233
  H     -4.55841378     -0.20751047      2.93684018
  C     -6.10175363      1.26859213      2.71696844
  H     -6.18007436      1.35845726      3.80203085
  H     -6.24690032      2.25835861      2.28456603
  H     -6.90410016      0.61623595      2.37191014
  P      0.21762116     -0.12667200      4.31864846
  C     -0.81478534     -1.18018010      5.49721546
  H     -0.61997819     -2.23164734      5.26266869
  H     -0.52070964     -1.01318708      6.53688295
  C     -2.31202209     -0.91049296      5.35690583
  H     -2.87787829     -1.57790866      6.00883968
  H     -2.54953985      0.11993855      5.62451831
  H     -2.63079267     -1.08181659      4.32546769
  C      0.10164729      1.50870362      5.25212158
  H     -0.84193955      1.97791877      4.95459156
  H      0.04161271      1.32991538      6.32977562
  C      1.23996706      2.48684166      4.97140945
  H      0.99402757      3.47261361      5.36950407
  H      2.16891264      2.14970023      5.43171450
  H      1.40826782      2.57562730      3.89662943
  C      1.93369162     -0.70837995      4.79029820
  H      2.64931140     -0.02061182      4.33097410
  H      2.08565304     -1.67984818      4.30893060
  C      2.25667664     -0.83861747      6.27846435
  H      3.31437975     -1.08116110      6.39633858
  H      2.05921121      0.09056114      6.81274565
  H      1.67290887     -1.63507356      6.73949506
  P      4.12352284      1.38550028      0.60911622
  C      5.38932009      2.19854119     -0.56952998
  H      5.08181884      3.24294432     -0.67798861
  H      6.39071257      2.20444257     -0.13017173
  C      5.46480211      1.55887663     -1.95413369
  H      6.00041659      2.21542224     -2.64221277
  H      5.98871621      0.60339837     -1.91330169
  H      4.46489132      1.37972838     -2.35292402
  C      4.95282093     -0.29826454      0.68262372
  H      4.96771037     -0.69459374     -0.33632234
  H      5.99346208     -0.18542442      0.99747236
  C      4.27425077     -1.32582590      1.57907009
  H      4.83108961     -2.26382343      1.56922424
  H      4.20433214     -0.97228262      2.60761761
  H      3.24422373     -1.54198329      1.20970258
  C      4.77821783      2.17141079      2.21625347
  H      4.07550776      1.88331209      3.00395962
  H      4.66586634      3.25397683      2.08968344
  C      6.19858487      1.87600495      2.69987281
  H      6.41704884      2.48690925      3.57810445
  H      6.30449148      0.82856811      2.98298768
  H      6.94099317      2.10615942      1.93531963
  P     -0.61923283     -4.77667134     -0.53288530
  C     -0.58279528     -5.42685917     -2.29033795
  H      0.28191935     -4.97365836     -2.78399054
  H     -0.42738877     -6.51002774     -2.28980537
  C     -1.84011414     -5.11195574     -3.09973573
  H     -1.67749198     -5.35775467     -4.15047652
  H     -2.69162887     -5.68907694     -2.73779707
  H     -2.08882218     -4.05132607     -3.02459222
  C     -2.06931262     -5.80159829      0.12881745
  H     -2.97585881     -5.46718744     -0.38519589
  H     -1.94083107     -6.86154543     -0.10640318
  C     -2.27516512     -5.62591696      1.63199044
  H     -3.14669528     -6.19412829      1.96114755
  H     -1.40492860     -5.97056365      2.19180516
  H     -2.43964297     -4.57149053      1.86883657
  C      0.84667947     -5.69999324      0.18676858
  H      1.01274366     -5.30764493      1.19586045
  H      1.71800072     -5.40044237     -0.40414486
  C      0.78832501     -7.22575551      0.25209512
  H      1.74920599     -7.60713624      0.60246118
  H      0.01806543     -7.56252881      0.94529909
  H      0.58786194     -7.65947551     -0.72772518
  P      0.48296332     -0.28339144     -4.14355364
  C     -0.95727966     -0.26432214     -5.35024749
  H     -1.61963033      0.55499944     -5.05151925
  H     -0.60011311     -0.04411793     -6.36043201
  C     -1.76197130     -1.56138463     -5.38689266
  H     -2.61945620     -1.44905318     -6.05232227
  H     -1.15155465     -2.39181049     -5.74353045
  H     -2.12872040     -1.80602300     -4.38656667
  C      1.62222299     -1.47498277     -5.05084975
  H      1.15673979     -2.46556393     -5.02514802
  H      1.71968198     -1.19550143     -6.10359389
  C      3.00715727     -1.57591947     -4.41516670
  H      3.62181095     -2.29047751     -4.96499578
  H      3.51211273     -0.60936205     -4.41506544
  H      2.91929166     -1.91951874     -3.38180390
  C      1.24079015      1.37362844     -4.57661717
  H      2.09755270      1.51860885     -3.91281996
  H      0.50164690      2.13273659     -4.29994863
  C      1.69156137      1.62300618     -6.01550135
  H      2.06433036      2.64546022     -6.09990989
  H      2.49598151      0.94504681     -6.29965338
  H      0.86944513      1.50248546     -6.72062150
  P      0.30162826      3.71152126     -0.67825785
  C      1.11232090      4.38686644     -2.23386083
  H      0.58081015      3.97329933     -3.09621805
  H      1.00987367      5.47425011     -2.28371187
  C      2.59246183      4.02798719     -2.33650925
  H      2.98166741      4.30084738     -3.31847578
  H      3.17130120      4.55359277     -1.57644824
  H      2.73149343      2.95540249     -2.19262119
  C      1.20973151      4.76974023      0.59230056
  H      2.19096684      4.30893975      0.75085556
  H      1.38893573      5.77859484      0.20967097
  C      0.49260182      4.85680139      1.93845664
  H      1.15630992      5.28632086      2.69056663
  H     -0.39859243      5.48046929      1.86747050
  H      0.18234281      3.86454798      2.27167013
  C     -1.34471766      4.59772860     -0.79397675
  H     -1.90613759      4.34132182      0.10998769
  H     -1.88333128      4.14244542     -1.63142762
  C     -1.35364205      6.11610782     -0.96968086
  H     -2.38604722      6.47039023     -0.95850113
  H     -0.81508451      6.61505725     -0.16463955
  H     -0.90622818      6.40874209     -1.91934263

