#B3LYP/6-31+G(d) OPT FREQ

914, Energy =      0.00000000 au

0 1
  O      5.95144788      5.61329811      6.54712411
  H      5.19422875      5.03046710      6.45478119
  H      6.28649241      5.56351783      7.44538192
  O      0.88001826      3.60484618      9.86331819
  H      1.66257918      3.48128503      9.32116410
  H      0.11722109      3.74546069      9.29766101
  O      1.69135946     12.69747121     12.49696690
  H      0.96078755     12.55070946     11.89171846
  H      2.48497373     12.90305702     11.99745626
  O      9.32950760      2.99111783      6.46294901
  H      9.39413293      3.80441535      5.95701353
  H      8.70720941      2.39720375      6.03679055
  O      1.73347857     -3.70540939     10.63606768
  H      1.42711218     -4.35702088     11.27100240
  H      1.97204306     -2.89725657     11.09604159
  O      8.67515086      6.74361908     11.21082560
  H      9.60010192      6.57070926     11.40100375
  H      8.53077374      6.70736789     10.26243691
  O      0.07903003     -3.38502119     17.34661390
  H     -0.39891780     -2.65722343     16.94229187
  H      0.57911744     -3.85300904     16.67393273
  O      0.46950759      0.71411104     14.38605710
  H     -0.02649576      1.22971545     15.02616082
  H      1.14942534      0.20965625     14.83864657
  O      9.23834896      9.56217215     12.22044918
  H      8.65213847     10.31595635     12.31927557
  H      8.74865212      8.82090963     11.85668156
  O      7.39486758      9.52475344     14.50406539
  H      6.82947662     10.27905888     14.32252648
  H      7.62633569      9.09185739     13.67906628
  O     10.38855351      9.78398138     20.99697577
  H     10.50967482      8.98266220     21.51157968
  H     11.10779876      9.87223079     20.36729464
  O      6.96005525      5.41754487     11.43416656
  H      6.21638614      5.05875132     10.94444884
  H      7.62069734      4.73264694     11.56092169
  O      6.90783693     -0.96109172     16.83568854
  H      6.52381187     -1.54725338     17.49184345
  H      7.23625079     -0.16874159     17.26687946
  O      6.05969205     10.54037852      3.89264054
  H      5.13796046     10.54079887      4.16098864
  H      6.61359601     10.74895663      4.64847490
  O      2.74639164     10.51697810      3.08633521
  H      3.56388974     10.06794553      2.85903232
  H      2.94489417     11.39612812      3.41692862
  O      6.31192383      2.50747734      3.66593548
  H      7.03966558      2.57217685      4.28867613
  H      5.81010902      1.70810808      3.84140819
  O      6.38350154     -0.39622277      0.84934488
  H      6.35810314     -1.30659136      1.15296298
  H      6.20008276      0.19226973      1.58530284
  O      0.87471897     -0.04606607     11.80436282
  H      1.10423049     -0.94171428     12.06270127
  H     -0.06035077      0.10333587     11.96223504
  O     -1.31688952      9.01507352      8.33452048
  H     -0.96848203      9.50283165      9.08438995
  H     -0.86481333      8.17119538      8.26312846
  O     -1.12667367      8.63227451     19.39204002
  H     -0.96750655      7.88412373     18.81192259
  H     -1.77946237      9.21301240     18.99428329
  O      8.14508419     -4.60085113     11.62624846
  H      8.16584429     -4.69302070     10.67090884
  H      8.56445201     -3.77470606     11.87767431
  O     -0.83485420      7.75748458     10.69409330
  H     -0.45062336      8.56478100     11.04372045
  H     -0.18598571      7.30208604     10.15263059
  O     10.74095473     -0.79576947      7.76515405
  H     11.54395035     -0.29718969      7.93313093
  H     10.64840669     -1.48626668      8.42564514
  O     -2.96652683      7.94479881     13.57963733
  H     -2.07127649      8.28439605     13.51035134
  H     -3.30222570      8.10446897     14.46474281
  O     11.81745302     -0.51787411     18.28831823
  H     11.32283541     -1.34064548     18.28748081
  H     12.11997082     -0.32492694     17.39789453
  O      2.88639225      6.65198012      6.26448030
  H      2.60278898      6.34388697      5.40062395
  H      2.71288388      5.97237479      6.91994307
  O     -0.39384531      4.26101312     -1.41813273
  H      0.32653257      4.75595078     -1.81523777
  H     -1.10727660      4.86129290     -1.18948454
  O      2.44246103      3.71131079     11.83309622
  H      2.41292900      4.24093365     11.03295405
  H      3.26701287      3.87618343     12.29627143
  O      8.06567733     11.49298882      3.40560858
  H      7.64418331     12.09655039      2.78944608
  H      8.27111272     10.66924358      2.95745672
  O      2.28935054      5.59748535      3.48481765
  H      1.46361157      5.69516603      3.00501181
  H      2.53119872      4.66914456      3.52077378
  O     10.17173128     10.06952064     10.20106216
  H     10.52441897     10.23735348      9.32411089
  H      9.28400894     10.42954785     10.26374755
  O     -2.50905673      5.93612746     -2.16071527
  H     -2.18066219      5.33288535     -2.83142831
  H     -2.26276963      6.83519991     -2.39008703
  O     -4.08535205      0.12563091      9.71592137
  H     -4.29513837      1.06051676      9.77573894
  H     -4.34994637     -0.20774890      8.85542863
  O      0.24649710      2.37413001     11.67809080
  H      0.44713154      2.04060537     12.55564829
  H      0.64023273      1.79821197     11.01862840
  O      4.72516578      1.50237039      2.14882370
  H      4.17647528      2.27093054      1.97604051
  H      4.17383959      0.77587944      2.44857415
  O      4.60337991      0.75586705     -4.02282112
  H      4.87403505      1.45036291     -4.62781805
  H      4.30691193     -0.00770400     -4.52348667
  O      3.65532275      8.25020644     14.81379001
  H      3.95438663      7.52435810     14.26124591
  H      3.04219809      8.79836511     14.31861305
  O      0.93733501      9.77770813     14.77970276
  H      1.15734673      9.08750314     15.40963286
  H      0.15470414      9.52295187     14.28554877
  O     10.19550367      4.10712516     13.90966769
  H     10.08658034      4.91451205     14.41746896
  H      9.56037496      4.09308503     13.18993552
  O      5.04831450     -0.09661318      5.71235135
  H      5.84640778      0.15922504      5.24416985
  H      4.38795830     -0.39306132      5.08175782
  O      6.90228619     10.34767632     19.64878408
  H      6.57917007      9.60456876     20.16355309
  H      7.43492232     10.91764155     20.20828241
  O     -1.32797868      1.64020361     10.61364856
  H     -1.56794859      2.56916838     10.64588051
  H     -0.91621585      1.44472446      9.76875846
  O      4.97845965     12.17020672     15.87805751
  H      4.45813847     12.78172732     15.35183661
  H      5.41204024     11.53841290     15.29974579
  O     11.25442959      7.24230791     19.85276637
  H     10.90435447      7.99603063     19.37219434
  H     12.04989429      6.92639766     19.41798296
  O      5.24852050     11.29942423      9.95463157
  H      6.11452140     11.61630171     10.22152314
  H      4.74667597     12.02266166      9.57164372
  O     -1.77132709      8.16544068     16.25500764
  H     -2.23155361      7.75263967     16.98943727
  H     -0.82805221      8.00784333     16.33864721
  O      8.12390904      3.40831572     15.08620376
  H      8.15108511      4.23952875     14.60667653
  H      8.04707767      2.68158029     14.46366656
  O      2.13165666      8.76972894     11.74262881
  H      1.94556479      8.21130841     10.98425138
  H      2.09353515      8.24383776     12.54486645
  O     -1.56481743     -2.92630090     14.94388885
  H     -1.10323818     -3.53811387     14.36576301
  H     -2.05444120     -3.41902308     15.60653010
  O      9.12587175      6.98682414     -1.56345951
  H      8.85627360      6.68224334     -2.43302686
  H      8.50885844      7.65293122     -1.25169688
  O     -0.33074739      9.93876290     21.52345946
  H     -0.79045708     10.45074277     20.85402416
  H     -0.27570204      9.02197445     21.24405125
  O      3.16318424      4.89484547     23.79761263
  H      2.76406316      5.57736854     23.25312698
  H      3.48453879      4.18484232     23.23705329
  O     -1.80238993     10.53203722     17.11922391
  H     -2.43717841     10.82249011     16.46022413
  H     -1.02871531     10.16989401     16.68118296
  O      6.44309084     10.14885472      8.54942793
  H      6.29901838     10.97713751      8.08597269
  H      5.59688027      9.74095573      8.74728160
  O     -4.80916233      2.32831380      7.09824083
  H     -4.32067985      1.61618276      7.51759062
  H     -5.02884281      2.99516053      7.75295903
  O      9.98103035      8.25754077      7.06245329
  H     10.38138492      9.12289752      7.17413995
  H     10.65212597      7.62640509      6.79245621
  O      9.50719133      1.22278191      7.92017080
  H     10.32011074      1.46704156      7.47172988
  H      9.06462343      0.52888950      7.42595730
  O      5.33902848     -0.83627866     13.61341458
  H      5.63423991      0.04375863     13.85833208
  H      4.80556658     -1.20403774     14.32177301
  O      2.68185769      5.04756480     15.34786024
  H      1.83695744      4.71159791     15.65586970
  H      2.83978928      4.74382025     14.45097850
  O     12.47188009      5.10444255     10.60826551
  H     12.71272900      4.80993912      9.72686916
  H     11.79594210      5.78326713     10.54577523
  O      7.35638309     10.13337617     -0.80670616
  H      6.64506512     10.46993257     -1.35657572
  H      8.06831033      9.81207438     -1.36485020
  O     -0.14226103      2.46635111      3.53712358
  H      0.30330031      3.07721830      2.94558628
  H     -1.07819889      2.44014270      3.32514845
  O     -3.84402847      1.37127888      5.57694756
  H     -4.61788512      1.70641890      5.11822428
  H     -3.16167813      1.15386171      4.93762933
  O      3.82681381      6.19927519     12.58675636
  H      2.95812558      5.82717827     12.75564877
  H      3.80911649      6.69402733     11.76425582
  O     13.03085636      4.89633340     14.16779539
  H     12.40773127      4.27947288     14.55868954
  H     12.55046352      5.59849172     13.72305230
  O      8.12288813      0.75383096     12.37837018
  H      8.50503959      1.34787865     13.02849909
  H      7.20235279      0.58996909     12.59600286
  O      2.47931219     11.32234242      7.84903156
  H      3.07695345     10.70051346      8.27063999
  H      2.57703924     12.18655788      8.25545629
  O      7.82257987      3.05536633      8.44463462
  H      7.73768101      2.09914439      8.45027411
  H      7.68710614      3.38385549      7.55281528
  O      6.13610184      7.71463951     11.61671200
  H      7.01102813      7.80024774     12.00242591
  H      5.47280519      7.79340645     12.30622873
  O      6.59406811      0.29905996     -1.14388967
  H      5.91748225      0.74734972     -1.65659608
  H      7.44173003      0.38658782     -1.58593961
  O     11.58671919      4.16887203      5.24415079
  H     12.43624613      4.24122773      4.80293811
  H     10.91144516      3.93552400      4.60293812
  O     -0.18743245     -3.37440360     19.68903072
  H     -0.82804062     -2.95871094     20.27077017
  H      0.56578352     -2.79070894     19.57255647
  O      0.84422075      6.20916221     -0.28641159
  H      0.94122255      6.50803664      0.62070733
  H      0.09908390      6.65713525     -0.69346347
  O      2.00838155      3.63011393     19.66475133
  H      2.08682987      4.51934325     20.01790439
  H      1.17067320      3.54086597     19.20444760
  O      8.41070945      4.77027868      9.68627914
  H      7.59508161      4.92677560      9.20476076
  H      9.10243814      4.51635814      9.07094526
  O     10.98965312      2.61521443     19.29101746
  H     10.79866344      1.77868242     19.72152546
  H     11.31670402      3.24234953     19.94012397
  O      7.67872017      3.83305830     20.98731448
  H      7.10023540      4.38011151     20.45094879
  H      7.42070366      2.91249040     20.90023842
  O     10.52539083     -0.86606990     12.94998564
  H      9.69652224     -0.43208848     12.73495775
  H     10.36624691     -1.55958183     13.59443457
  O      9.17461876      2.32317940      0.52375984
  H      9.77836829      2.15046574      1.24988415
  H      8.60940561      1.55911941      0.38831085
  O      6.64579442     -1.73752984      5.12528467
  H      5.84246299     -2.11979265      5.48602525
  H      7.20890053     -1.43874239      5.84308518
  O      7.61173617     -3.66833314      5.76948506
  H      8.33549437     -3.17980363      6.16837474
  H      6.94044308     -3.84499188      6.43262704
  O      5.22565575      3.36630944      8.59744048
  H      5.97691995      3.37652173      9.19501709
  H      5.03466290      4.26131136      8.30745203
  O      9.78022728      9.21541018      1.77007663
  H     10.66726288      9.28352460      1.40934364
  H      9.17438341      8.93504235      1.08018744
  O      3.28582008     -1.40898034      2.34564474
  H      2.55115714     -1.15969267      1.78020153
  H      4.03499395     -1.66583218      1.80309001
  O      4.75835801      5.03796828      2.30912913
  H      4.78494343      5.99616630      2.36156746
  H      4.89844528      4.76276902      1.40015117
  O      4.46311706     -4.33618541     10.91292415
  H      4.38786391     -3.40453907     10.69389889
  H      5.37250410     -4.62052250     10.79558853
  O      0.32327359      1.39015253      8.14014038
  H      0.08355123      1.95341863      7.40063751
  H     -0.06005697      0.51871277      8.01664771
  O      3.87837551      0.28176219     12.23028499
  H      4.23293606      1.10183614     11.87905068
  H      2.98736158      0.43093633     12.55500220
  O     11.33919353      4.36227473      7.48143525
  H     11.47630513      5.23893186      7.11500287
  H     11.00053864      4.43844114      8.37648360
  O     10.52889151      7.49768386      9.63087976
  H      9.84690276      8.16906433      9.55511954
  H     10.69555775      7.11139657      8.76797507
  O     10.61878348     -0.42518765     10.87366885
  H     10.90284594     -0.05511145     10.03465030
  H     10.55387870     -1.37993634     10.79723384
  O      3.94185780      1.54947095     -0.26365319
  H      4.70704539      1.14737498      0.15396720
  H      4.08587271      1.60448926     -1.21119353
  O      8.13850433      6.74653646     15.59227970
  H      8.87828921      7.18867920     16.01516044
  H      7.50934152      6.46454728     16.26028888
  O     -0.92402087      8.32193599     -0.16550620
  H     -1.76436260      8.54588001      0.24103391
  H     -0.41825739      9.12346856     -0.31830948
  O     -3.67282044      0.63187174      0.95493519
  H     -3.40674774     -0.21048977      1.33074419
  H     -2.98897094      0.94752292      0.35969221
  O      6.02398910      1.16183201     15.83383421
  H      5.14676143      0.77556742     15.78024982
  H      6.12485482      1.82453261     15.14662680
  O      5.99529066      1.34571675      9.34546395
  H      5.26878282      1.45227338      9.96387485
  H      6.09069903      0.41745038      9.12003370
  O     -2.72673684      1.60502447      2.49655276
  H     -3.09769066      2.29062566      3.05686006
  H     -2.35924004      0.90751121      3.04429482
  O      9.70928944      6.30595627     17.71042245
  H      9.27198008      6.47541306     18.54806493
  H     10.66082147      6.32263205     17.83655222
  O      2.61217102     10.27023332      1.06256250
  H      3.30138409     10.93356032      0.98142903
  H      2.91867812      9.44195860      0.68624563
  O      0.13995246     -0.20919454     21.85984685
  H     -0.62694697     -0.10118549     21.29257327
  H      0.92813139     -0.29990026     21.31934112
  O     -0.02552728     10.91478976      6.80886953
  H     -0.64972945     11.22757309      7.46776121
  H      0.20869458     10.00294987      6.99672092
  O      3.10144605      4.36608566     17.82354183
  H      2.21321162      4.12690372     17.54889368
  H      3.74117499      3.91064276     17.27134744
  O     -3.84851486      0.70276413     17.99936530
  H     -3.68024541      1.31383432     18.72039139
  H     -3.68794759      1.14345390     17.16174326
  O      1.32408871     11.94585112     15.07786388
  H      2.19438724     11.64433763     14.80717941
  H      0.73227148     11.93645686     14.32204371
  O     -2.86372862      9.55762950      6.42740998
  H     -2.84294438     10.44805591      6.06920778
  H     -2.99050786      8.92804741      5.71386011
  O      5.12670219     -3.35029334     15.40180525
  H      4.89226628     -4.19120271     15.80119384
  H      5.23235703     -2.68777931     16.08847272
  O      3.12750241     -2.26814513     15.53906106
  H      2.30504057     -2.71446813     15.75342593
  H      2.94742467     -1.34976134     15.32518438
  O     -2.40104518      6.27125488     15.18459397
  H     -2.75197121      5.60864525     15.78409326
  H     -2.63778168      6.04454618     14.28228637
  O      5.21765450     -0.95899465     11.39451413
  H      5.02523074     -0.47764075     10.58650947
  H      5.73194830     -1.74236163     11.18609614
  O      9.60053064     -1.37792554     15.83270210
  H      9.85667153     -2.21594600     16.22476530
  H     10.14819681     -0.67569896     16.19122632
  O      7.35511243      6.25531444     13.74767180
  H      6.48142381      6.35227988     13.36184034
  H      7.99589225      6.08948597     13.05232861
  O      3.20993701     10.54721442     10.88127902
  H      3.79685909     10.88134802     11.56353793
  H      2.95822018     11.26487329     10.29544253
  O     10.37696075      4.49930524     -1.46241902
  H     10.05138994      4.20228238     -2.31528541
  H     11.15227377      3.98791705     -1.21957783
  O     10.70391105      9.82468479     13.82724799
  H     10.98085064      8.91134026     13.93071891
  H     11.41263697     10.33061966     13.42309767
  O      7.67915562     -2.45892847      7.92269129
  H      8.11704858     -1.67743986      8.26783665
  H      7.62339333     -3.12547156      8.61132100
  O     -1.46207622     -0.06267555      6.71273820
  H     -1.57149479      0.32007375      5.83916475
  H     -2.31875456     -0.32585017      7.05689129
  O      5.28175979      7.76320769      0.72616125
  H      5.49537428      6.82843724      0.67954499
  H      4.67213530      7.98823833      0.01953604
  O      6.50496650      4.47656284     23.11181429
  H      6.16398722      3.76020389     22.57129324
  H      6.89610311      5.14651400     22.54632548
  O     -5.12653585      4.02968174     16.19961957
  H     -5.22252336      4.89309660     15.79108415
  H     -5.10262090      3.35370355     15.51838425
  O     -3.92007846      4.27807648      5.00331955
  H     -3.16276803      4.41226246      4.42879798
  H     -4.58441049      3.76069978      4.54225089
  O      1.47296910      8.43302431      4.22265885
  H      1.40438746      7.51940166      3.93597051
  H      1.12024653      8.51730307      5.11152548
  O     -0.21788918      4.73546079      4.12804900
  H      0.50522435      5.00460100      4.69924981
  H     -0.98037543      4.50440499      4.66361220
  O     -0.36035124     -0.50817055      9.98221142
  H      0.50099687     -0.10905480      9.83943166
  H     -0.39492397     -1.36132421      9.54342495
  O      1.75203624      3.59494363      0.32750817
  H      1.76100227      2.74043995     -0.10991963
  H      1.48829304      3.48314989      1.24377325
  O      6.98757148     -4.73195662     14.46511793
  H      7.59378047     -4.43010455     13.78467984
  H      6.16060563     -5.00337565     14.06007572
  O      2.73408004      0.37309044     -2.91120828
  H      2.80486828     -0.56363691     -3.10902356
  H      2.30698289      0.82383981     -3.64333739
  O     10.66932938      1.54993631     17.39967435
  H     10.57577690      1.72884543     16.46114387
  H     11.59312003      1.62528784     17.64974034
  O      5.15099078      9.34774139     13.66791536
  H      4.71751743      9.97834821     14.24760140
  H      5.59362067      8.67903398     14.19565503
  O      3.83092748      1.94612063      5.59291021
  H      3.19284942      1.23957677      5.71640982
  H      3.99679271      2.06783465      4.65521387
  O     -2.39292814     -2.67035087      5.54982572
  H     -2.93383794     -2.93698600      6.29676769
  H     -1.49818295     -2.49310120      5.84918102
  O     10.80999008      1.96038512      9.35205626
  H     11.67532332      2.04455699      8.94497706
  H     10.28067713      2.73335729      9.14243319
  O      3.39982008      5.94632414      0.77857216
  H      3.10734414      6.76334411      1.18910377
  H      2.74239335      5.65373618      0.14313343
  O      3.86331925     -4.60568430     12.81161444
  H      3.53063997     -5.46045378     13.09497576
  H      4.21133312     -4.13001858     13.56939308
  O      2.01573704      1.87234688      3.98063041
  H      2.54351744      2.05981945      3.20094978
  H      1.96200445      2.65916583      4.52801396
  O     -3.09458340      4.32606332      9.59675915
  H     -2.17979125      4.51010716      9.82233217
  H     -3.20255511      4.35963206      8.64344112
  O     -0.94994689      6.25602814      1.57647489
  H     -1.70987061      6.16277667      0.99732024
  H     -1.03658053      5.65302782      2.31842181
  O      4.03426087     -3.11115622      3.66698711
  H      4.14831676     -3.93560579      4.14539506
  H      4.01695448     -2.37973738      4.28853918
  O      3.01925516      4.09729758      5.71292208
  H      3.29404111      3.98619799      6.62602096
  H      3.79314236      4.11350642      5.14508771
  O     -4.37546605     -1.45097126     12.36507362
  H     -3.94914549     -2.20238462     12.78367695
  H     -4.45445956     -1.61178622     11.42194129
  O      8.75955872     -0.34513337      1.90993198
  H      8.75254980     -0.02237099      2.81402010
  H      9.61316800     -0.73985205      1.71719284
  O      7.09520227      9.54308421      6.27912164
  H      7.89600142     10.06390316      6.18389378
  H      7.16067134      8.99540611      7.06484583
  O     -1.09827299     -1.20776808      0.18820457
  H     -1.43898349     -1.68377629      0.94908073
  H     -0.86419987     -1.83247701     -0.50212038
  O     11.70819600      6.54182065      2.87172545
  H     11.41545385      7.45592675      2.85406007
  H     10.99261645      5.97053942      2.58330965
  O      7.75453387      8.06384492     17.48143806
  H      7.45882115      8.77123490     16.90372411
  H      8.53490071      8.34829905     17.96280429
  O     12.08203367      1.72194734      5.90935963
  H     11.40373417      1.05209178      5.79620788
  H     12.23913519      1.86395522      6.84571046
  O     -1.30657546      3.27317864     14.43587715
  H     -1.08735000      2.80163527     13.62891553
  H     -1.42851355      4.20493593     14.23951152
  O      6.78580672      7.17704612      5.58642844
  H      6.88386142      6.90604110      4.67070930
  H      7.65187235      7.34217864      5.96624627
  O     11.95805119      0.01137253      3.47473348
  H     12.17233339     -0.45181257      4.28784030
  H     11.43387895     -0.56020761      2.90892466
  O      5.26456175     -4.04027003      8.25430967
  H      4.98228382     -3.28962954      8.78200088
  H      5.08014472     -4.85365044      8.72970706
  O      8.66786532      3.40425491     22.86107996
  H      7.99922059      3.04067310     23.44616329
  H      8.93213776      2.73749816     22.22296123
  O     -0.54026391      4.33697898     16.15525547
  H     -0.16292294      5.07431955     16.64058286
  H     -0.33941018      3.51660188     16.61158781
  O     11.89889047      3.34696657      2.56034729
  H     12.52558408      4.03632375      2.32874030
  H     11.00492710      3.68964917      2.48964979
  O     -3.07837697      6.72199155     19.01247154
  H     -3.63712850      5.97229729     19.23008417
  H     -3.04939947      7.32694755     19.75731284
  O      9.32297906      9.72382572     15.33938935
  H      9.57201045      9.11278928     16.03668258
  H      9.13601260     10.58518679     15.71978474
  O      1.26181840      6.73767685     14.40935079
  H      2.04296328      6.96945950     14.91698203
  H      0.50015558      6.70017493     14.99250030
  O      8.27846224     -3.69420318      1.00732808
  H      8.33201165     -4.46359001      1.57897164
  H      8.30415713     -2.89635534      1.54059969
  O      3.84161434      8.72629442     10.32645593
  H      3.44652422      9.04792359      9.51278617
  H      4.69084187      8.32273747     10.13266637
  O     -1.63896670      2.51536920     21.88951180
  H     -1.07988874      1.91615517     22.38948619
  H     -1.85387278      3.27916176     22.42991565
  O      1.09811992     10.18914289      8.84733883
  H      1.11494895     11.03555577      9.29999989
  H      1.26502663      9.48500436      9.47815662
  O      6.47530037      5.20820828     18.18483912
  H      5.72674595      5.61424867     18.62800667
  H      7.28749097      5.62743627     18.47842781
  O      1.01592381      4.87677161     13.34461382
  H      0.51133477      4.84209750     14.16057191
  H      0.65426076      4.24661380     12.71715787
  O     -1.29985374      5.16013326     11.60797757
  H     -1.78222105      4.49212320     12.10060760
  H     -1.77268721      5.99446047     11.65187090
  O      4.42220315      8.33785150     23.22331355
  H      4.06525986      7.46152757     23.38532547
  H      4.23929298      8.59583232     22.31689766
  O      4.42930684      5.31626845     21.46621088
  H      3.71753756      5.93852241     21.29952404
  H      4.83880286      5.51659915     22.31106626
  O     -4.78520255      4.37868636     11.27477590
  H     -4.25733241      5.15648364     11.07987977
  H     -4.93155038      3.88020304     10.46749857
  O      0.31618614      4.97428153     22.50750249
  H      1.06254488      4.99258778     21.90400144
  H      0.58527399      5.32270743     23.36060924
  O      9.08368103     10.30324104     18.33421529
  H      8.33869042     10.39232385     17.73533864
  H      9.83509963      9.94079244     17.85924044
  O     11.63668816      3.72769411     16.47858911
  H     11.79070815      4.03567114     17.37470740
  H     12.31614567      3.09430590     16.23619097
  O     -1.83913793      6.83995367      4.19391492
  H     -0.92746542      6.65529241      4.43130376
  H     -2.41989140      6.54565513      4.89940325
  O      1.65088145     -0.43822021      4.08050280
  H      2.41315844     -1.02110155      4.10848756
  H      1.56599060     -0.06369485      3.20065946
  O     10.82810836      1.82002522     -1.33796051
  H     10.13488081      1.29791848     -0.92754595
  H     11.50798994      2.01644137     -0.68928359
  O     -3.65154606      7.46073592      7.41793995
  H     -2.71747377      7.61935638      7.26318688
  H     -4.02035989      8.18774872      7.92491999
  O     -1.41583209      3.03580267      1.03953961
  H     -2.36488116      3.13001602      0.92985954
  H     -1.05912525      3.83140496      1.44125748
  O      0.34092210     -3.32588312      8.29557285
  H      0.76073971     -3.85323619      7.61201457
  H     -0.26158962     -2.69756901      7.89084948
  O      3.94707487     10.68327221     -1.51551547
  H      3.07041522     11.04999174     -1.37918997
  H      4.11822117     10.00797509     -0.85499844
  O      1.07642298      9.42572865     18.14183644
  H      1.58111403      9.17811228     18.92002219
  H      1.33160858     10.30776520     17.86167249
  O      8.14759734      0.70349081     10.29272121
  H      8.46583540      0.39921111      9.43964536
  H      7.44756965      0.12254236     10.59941346
  O      9.12908642     -0.47083486      5.68805522
  H     10.00134872     -0.72634711      5.37906984
  H      8.83041354      0.30129231      5.20203655
  O     -2.51635095      8.29488407      2.93015655
  H     -3.02443051      8.50677916      3.71663964
  H     -3.10748673      8.21902074      2.17755889
  O     -0.42323470      5.46491750     18.66201041
  H     -0.62386215      5.14366274     19.54413512
  H      0.52103189      5.39638014     18.50306628
  O      7.17320039      5.72360348     -1.59706417
  H      7.69853457      5.08458347     -2.08417548
  H      6.41344217      5.98204136     -2.12392023
  O      9.10096754     -0.05439157     21.22263031
  H      9.62977929      0.47658585     21.82264790
  H      8.41292673     -0.50649718     21.71639175
  O      4.96373927      5.98594600      9.34301180
  H      4.49670109      5.67446422     10.12176365
  H      5.74147323      6.48023247      9.61210432
  O      4.34893415      2.30469745     14.19934477
  H      4.07583683      3.20523690     14.00948544
  H      4.95387400      2.00284434     13.51777858
  O      4.73202767      8.74220394      6.12334705
  H      5.02054008      7.83742200      6.26381141
  H      4.72733201      9.21079257      6.96120304
  O      4.13708747      2.89706168     10.77945563
  H      4.96131316      3.36456028     10.93339420
  H      3.75312280      3.18924807      9.94951692
  O     11.38326764      6.85782930     14.88460890
  H     10.92448380      6.86251924     15.72787362
  H     12.15122009      7.43173593     14.93441082