#B3LYP/6-31+G(d) OPT FREQ

914, Energy =      0.00000000 au

0 1
  O     -1.16310812      6.95109703     15.49030479
  H     -0.28591978      6.90998108     15.10242580
  H     -1.80244111      7.18353741     14.81293872
  O     -4.44883648      3.41953796      8.37192558
  H     -3.60056280      3.86900336      8.36837282
  H     -5.15557300      4.06903888      8.38841932
  O     -3.68671385     -1.76162449     18.61672857
  H     -3.76056567     -2.02412673     17.69627299
  H     -3.47002040     -0.82776551     18.66723955
  O     -1.38052410      3.68543036     12.38585359
  H     -0.89095597      4.46971169     12.12734666
  H     -0.86809629      3.18364692     13.02400021
  O     -0.46713115     -2.44654542     11.94731206
  H     -1.04357884     -2.35794209     11.18477845
  H      0.41128438     -2.70279244     11.65692676
  O      2.45578329      1.37434894     20.20669074
  H      2.51470305      1.78558956     21.07214416
  H      2.31167876      2.04991727     19.54002642
  O      7.16751406      6.36651596     -2.28519645
  H      8.12601475      6.37403707     -2.23209405
  H      6.79703518      6.52216032     -1.41334770
  O      6.20157086      4.19288202     11.40879939
  H      6.91326522      3.95840662     12.00889307
  H      5.70628553      4.93076935     11.77186240
  O      1.41227237      8.65441876      3.95984123
  H      1.90733920      9.25807699      4.51850533
  H      0.93540947      8.02773832      4.50890716
  O     -1.51311124      0.43505757      2.19964542
  H     -1.64779572      1.17868970      2.79165163
  H     -1.43712025     -0.37301769      2.71232441
  O      0.05274828      8.56089265     10.26369547
  H      0.88561083      8.08966751     10.18696969
  H     -0.67520453      7.94668093     10.14357604
  O      1.10413473      7.56404222     16.47317313
  H      1.82527351      7.83596072     17.04555343
  H      0.29732486      7.48878996     16.98794972
  O      4.73733039      8.36065805     19.88715149
  H      5.00722195      7.50391929     20.22590986
  H      5.49350786      8.95189507     19.87184076
  O      6.45988945      6.03308459      5.30483893
  H      6.70214433      5.16657661      4.97006067
  H      5.97988369      6.51551408      4.62774494
  O     -0.64218096      0.22526867      7.49665277
  H      0.27920250      0.41516771      7.30536533
  H     -1.18130599      0.98388078      7.26117056
  O      3.00812474      7.76186906     22.24877289
  H      3.00569275      7.04407762     21.61130168
  H      3.14306643      7.40694742     23.13048790
  O      8.18004837      4.15174007     -2.51109194
  H      7.46029757      4.16407988     -1.87594903
  H      8.94056904      3.71107451     -2.12505804
  O      0.91620674      9.90059193     12.53064921
  H      1.83284934     10.18156515     12.57984673
  H      0.57827046     10.06291941     11.64687952
  O      2.61502001     -3.02348805     15.52870621
  H      3.36307841     -2.43349513     15.41073596
  H      2.18668722     -3.17105888     14.68232930
  O      9.37280606      5.21003131     16.52419996
  H      9.73494353      4.49841154     17.05716689
  H     10.02383203      5.48796330     15.87572559
  O      1.96595488     -1.74013130     19.24884324
  H      1.62461174     -2.53683408     19.66157747
  H      2.21585765     -1.10926293     19.92792623
  O      1.93055499     -2.66854096      8.25950237
  H      2.01848690     -3.54255422      7.87224432
  H      1.97168240     -2.00539863      7.56657324
  O      7.88511367      5.91588601     12.43386634
  H      7.17315961      6.17564342     13.02314345
  H      8.66545958      5.70011991     12.94972024
  O      3.22599464     -3.23762005     12.89279113
  H      2.34610745     -3.53056723     12.64463697
  H      3.21765083     -2.28944049     13.04274417
  O      1.35597987     -2.96246235     17.37662256
  H      0.64068380     -2.58932522     17.89693037
  H      1.00156935     -3.60893653     16.76175321
  O      4.31726369      0.97754404     10.70182725
  H      3.45596459      0.87638709     10.29008567
  H      4.90206763      0.27988612     10.39706867
  O      2.77356742      2.13587786      7.98454232
  H      2.92416847      1.50984927      7.27249770
  H      3.39001463      2.86736988      7.90384382
  O      3.57055683      1.34146189     -2.80300948
  H      3.56552238      2.07795079     -2.18725079
  H      3.63834933      0.51698631     -2.31593229
  O     10.97605713     -0.64268850      7.48167245
  H     11.81795133     -0.34240140      7.13146991
  H     10.34654710      0.08197286      7.46814317
  O      4.63486526      8.58371974      1.47240780
  H      5.11230808      9.23818433      0.95731125
  H      4.91490522      7.70351130      1.21085334
  O      5.39657396      5.06648266      9.49192111
  H      4.46022382      4.91197984      9.34708567
  H      5.88751118      4.26479874      9.29728414
  O     10.91539049      5.76316038     21.00416449
  H     10.29263029      5.67890390     21.72988521
  H     11.50167908      5.00303942     20.99511926
  O     -1.62945499      7.88735413      6.05633008
  H     -1.49276694      8.48591739      6.79432629
  H     -0.80778715      7.43332112      5.85554168
  O     -3.25451058      8.48915534     13.89257484
  H     -3.74358979      8.22485698     13.10992044
  H     -3.78682154      8.32370004     14.67415630
  O      5.39061913     -2.96833776      4.33118929
  H      4.81383261     -3.51485776      3.79245632
  H      5.15132774     -2.04509331      4.22183062
  O     -1.26862493      4.85766386     14.09002671
  H     -0.41245738      5.27126475     13.95769593
  H     -1.94485121      5.36989995     13.64065803
  O     -2.81678964      1.30082683      8.63996140
  H     -3.67612705      0.92718373      8.84859992
  H     -2.12947312      0.77659012      9.05753998
  O      6.03871977     12.20337645      9.62798664
  H      5.17435546     12.25242929      9.21317564
  H      6.17083293     11.32427142      9.99036827
  O     -1.44220080      4.20109034     16.49051822
  H     -2.08601340      4.13157649     15.78180589
  H     -0.74221934      4.80402899     16.22957584
  O     -2.71227889      7.91218375      3.49927324
  H     -2.98440539      7.43937395      4.28920872
  H     -1.78412392      7.73885237      3.32582413
  O      5.22770988     10.69129393     15.30810258
  H      5.85013277     10.06937386     14.92416876
  H      4.43019596     10.71729793     14.77434670
  O      8.24583162      2.24480347      6.56471800
  H      7.81792078      3.02505814      6.92484986
  H      8.60867864      1.71883788      7.28116915
  O     -0.20468027      1.76268143      5.29851149
  H     -0.34833138      1.63236554      4.35830825
  H     -0.47251035      2.65142878      5.54345064
  O      2.67189347     10.41115615      0.67736675
  H      3.61230640     10.59662151      0.62420538
  H      2.49355881      9.54777473      0.29740716
  O     -0.19285246      5.94126038     -3.67076049
  H      0.19281715      5.23526044     -3.14690646
  H      0.50184476      6.40635651     -4.14265176
  O      9.24510871     10.46459618     14.87331002
  H      8.49352336     10.58773957     14.28888280
  H     10.05766327     10.50834786     14.36395663
  O      3.40295415     -4.72658788      1.16217482
  H      3.49068158     -3.86850343      1.58359503
  H      2.53522984     -4.79775139      0.75771186
  O      3.04535360      8.54885544     13.13900674
  H      3.81101473      7.97061937     13.10728784
  H      2.39689216      8.25762436     12.49380737
  O      1.54310091      0.43026147     -4.52295059
  H      2.49575367      0.48939391     -4.62569340
  H      1.26028739      1.01387368     -3.81512765
  O      7.08368060     -5.04058475      8.54538087
  H      7.92403858     -4.72663132      8.20357433
  H      7.22567204     -5.48998563      9.38172845
  O     11.78128267      6.67457949      8.98162207
  H     12.43156511      6.36981995      9.61868909
  H     11.07874741      7.14197440      9.43942793
  O      4.34878586      1.59490317     12.76342669
  H      4.30235085      0.68881143     13.07718068
  H      5.23952837      1.93125154     12.88609520
  O      4.82707944     -2.61269933      9.02293107
  H      4.59960867     -2.27161405      9.89098515
  H      4.05879014     -2.56675680      8.44915338
  O      9.76685140      6.09104535     18.96290597
  H      9.68372455      7.04592284     18.90906436
  H      9.01062495      5.67911364     18.53860205
  O      4.52238384      2.16668413     19.26562605
  H      4.72623093      2.65902312     18.46709698
  H      4.80919421      2.66742178     20.03282982
  O     -2.89576555      9.54106530     11.27809553
  H     -1.94746784      9.56073156     11.42623290
  H     -3.14279218     10.25664414     10.68773566
  O      6.84369501      1.60361926     11.01530346
  H      7.54074643      1.91271862     11.59855032
  H      6.10502679      2.21600850     11.04610384
  O      9.78309422     -0.65442554     15.55392029
  H      9.26436206     -1.29486835     15.06162976
  H     10.32208456     -0.14322221     14.94584088
  O      6.19954076      6.86611114     15.91733796
  H      5.78394491      6.62439029     15.08640407
  H      6.04546074      7.79708787     16.09380797
  O      9.48362303      6.62935890     -0.05468238
  H      8.89458187      6.52262881      0.69581026
  H      9.37951953      7.51060216     -0.42097839
  O      8.21683150     10.87520631     10.65004086
  H      7.63579639     10.24083602     11.07615415
  H      8.85117650     11.20832256     11.28897747
  O      6.58593839     12.15690943      7.38954482
  H      6.60539405     12.12725708      6.43020014
  H      6.27565350     11.31462625      7.72995977
  O     12.68116409      1.10342985      8.85250262
  H     11.85459603      1.25994539      8.39002221
  H     13.35515825      0.83701832      8.22293390
  O     -2.54438783     11.25111716      5.07868832
  H     -2.46850196     10.31665303      5.28512991
  H     -1.92845731     11.47539953      4.37731323
  O      6.81050011     11.94546609      0.91871529
  H      6.77607149     11.02649258      1.19421914
  H      6.20935041     12.46443955      1.45805340
  O      1.44531671      6.65163871      6.15408039
  H      2.25431222      6.22658636      6.44811571
  H      0.78710875      6.60498856      6.85135082
  O      4.10644265      5.07597157     -2.23997007
  H      4.67952426      4.55774082     -1.67022068
  H      3.55813707      5.65312187     -1.70344559
  O      7.32746918     -4.32501243     14.65139130
  H      7.74899357     -3.74389078     14.01404145
  H      7.63747486     -5.22395206     14.51946699
  O      4.22109522      4.41698721     16.30627349
  H      4.99613786      4.72231062     15.82910840
  H      3.53486558      4.17357785     15.68062122
  O      5.78317212      8.27122073     22.65059657
  H      5.55328467      7.52851952     23.21375436
  H      5.64448818      9.09155158     23.12957890
  O      5.28132871     -1.03153887     23.18969184
  H      5.57653808     -0.26020977     23.67908211
  H      5.64623595     -1.00687679     22.30209143
  O      1.68868752      4.38031407     -1.52927135
  H      1.90238996      3.69118236     -0.89600303
  H      1.23409601      5.09742822     -1.08128269
  O      7.05069929      4.11564505     17.13512207
  H      6.63677637      4.97608781     17.03559273
  H      6.80730518      3.55536240     16.39455293
  O     -1.05789431      4.42847698      6.51067838
  H     -0.24255350      4.88535236      6.29139716
  H     -0.96513114      3.99933053      7.36439281
  O      9.33310428     -1.72554321     11.51054268
  H      8.63317496     -2.38245147     11.49748545
  H     10.05720045     -2.01764924     10.95200995
  O     -1.32406967     -1.67162106      7.54159916
  H     -1.28602056     -1.55779356      6.58913101
  H     -0.83227176     -2.45767811      7.79029404
  O      6.15380670      4.96267853     23.98195577
  H      6.81664480      4.50328171     24.50272464
  H      5.53827658      5.40879725     24.56821575
  O      3.86674327      6.76214425     -4.28076347
  H      3.19339648      6.78565433     -3.59691308
  H      4.72709930      6.62179713     -3.87865629
  O     11.29456837      0.86393755     11.12326527
  H     12.05421226      1.37991673     10.84343202
  H     11.23739686      0.06494343     10.59417188
  O      8.02995125      1.54569376     13.57361943
  H      7.34309227      2.21455155     13.62315725
  H      8.09789716      1.09302738     14.41746569
  O      2.91630790      1.58712087     15.02846093
  H      3.12333341      0.69013833     14.75613253
  H      2.99556999      2.17705508     14.27527096
  O      7.33124247      5.06383263      0.03137084
  H      6.73735555      5.70870026      0.42257932
  H      7.36314463      4.28025496      0.58507499
  O      8.14742199      0.14455766      8.73828100
  H      8.75024973     -0.54414080      9.02792414
  H      8.39410432      0.97831659      9.14521328
  O      5.69837132      3.89349853     13.64055508
  H      5.01167276      3.48485051     14.17258129
  H      5.83097719      4.79939372     13.92929301
  O     -3.23005322     -0.55897167      6.01542658
  H     -3.87899841     -0.94279132      5.42116013
  H     -2.65120388      0.02712304      5.52244946
  O     13.26933949      2.48636342      5.32187095
  H     12.59316647      1.93216362      4.92532003
  H     13.45802709      2.17551702      6.21033677
  O      2.64933857     -2.36193254     10.64849708
  H      1.82823994     -2.15851230     10.19460585
  H      2.79268549     -3.31114451     10.64154717
  O     -0.71897703      7.20244450     12.31780304
  H     -1.52466900      7.45102971     12.77678651
  H     -0.17771698      7.98239036     12.17524776
  O     -0.67132260      9.49325266     17.47997554
  H     -0.56130691     10.35104214     17.89674136
  H     -1.15815883      9.59594557     16.65897332
  O      3.96397175     -1.10131769     17.95006941
  H      4.69400569     -0.63487826     17.53644553
  H      3.91096123     -1.99200214     17.59585041
  O      0.92978609     -5.26936950      3.96297909
  H      1.37106081     -5.96605849      3.47155150
  H      0.22723542     -4.89455029      3.42675793
  O     -2.73318450     -1.21479590      0.21192619
  H     -2.75042525     -0.64900531     -0.56343422
  H     -3.19572007     -0.78314060      0.93396120
  O      6.24643688      4.19205757     19.33838026
  H      7.01645759      4.69620734     19.06543131
  H      5.76911229      4.67738485     20.01529876
  O     -1.31910573      9.82626081      2.48269047
  H     -0.66125291     10.51827297      2.38294661
  H     -2.18818658     10.22204812      2.58092942
  O      6.59795128     -0.64536828      7.53493268
  H      6.60123672     -1.60349049      7.59485795
  H      5.80414918     -0.30100162      7.95073293
  O      7.42881094     -3.71244325     17.90809744
  H      6.62639193     -4.07611227     17.52669400
  H      7.90526592     -3.21584344     17.23878490
  O      5.48102787      2.45286830     22.16706101
  H      5.24121374      1.58060803     22.48838827
  H      5.29002602      3.10712325     22.84312961
  O     11.18466024      7.89281761      4.05563867
  H     11.12788516      8.80676627      3.76741229
  H     11.07398588      7.84976511      5.00826539
  O      1.54083903      3.36217283     16.74869422
  H      2.21132500      2.90596769     17.26243095
  H      0.87631947      3.72472017     17.33909509
  O      6.11385023      2.32807571     -2.74393014
  H      5.44440447      2.58496279     -3.38224934
  H      6.98192004      2.56956602     -3.07519626
  O      6.71581019     11.42729742     18.92344599
  H      6.64615501     11.92793288     18.10728895
  H      7.07974027     10.55882676     18.73659416
  O     -3.01724593      3.18951031      4.55530320
  H     -3.94844745      3.40085144      4.65429132
  H     -2.89899964      2.23754031      4.59232931
  O     -1.09944037      5.28097040     21.15122003
  H     -0.64309341      6.01464619     21.56963047
  H     -1.34151073      4.63273920     21.81665090
  O      5.61897339     -1.33146614     -1.12060397
  H      5.64338607     -0.57550531     -1.71181227
  H      5.65027050     -2.14154899     -1.63478903
  O      4.98381939      8.70234077     -1.75965141
  H      4.51976043      9.49658683     -2.03428295
  H      5.45273238      8.32958814     -2.50983545
  O      7.11882614     -1.62954818     13.19642508
  H      6.94440287     -2.37070220     12.61173093
  H      8.02590386     -1.67348988     13.50767924
  O     -0.34086455     -4.69077410      7.95209362
  H     -0.95188390     -4.74076586      7.21334049
  H      0.46592201     -5.16275701      7.73316994
  O      5.59274984     12.41508681     11.72584914
  H      4.78880973     12.54919929     11.21860744
  H      5.70849256     13.14272093     12.34127762
  O      2.15613806      8.46771162      8.14907403
  H      3.11166377      8.38204839      8.11396799
  H      1.76372709      7.60951998      8.32548476
  O     10.01304863      7.29254259     13.38846955
  H     10.26050747      6.49926146     13.86916612
  H     10.01822683      7.11077055     12.44584974
  O      6.46803581     -1.62573995     16.39602005
  H      5.69426783     -1.69250850     15.83172839
  H      7.26191256     -1.67716443     15.85869777
  O     11.76318413      7.13830803      1.63246608
  H     11.78808430      6.42212631      2.27126473
  H     11.01549842      7.71012795      1.82111407
  O      7.50277100     -2.42208589      3.49283625
  H      7.04137071     -2.05777170      2.73389953
  H      7.94087532     -3.23805916      3.24014626
  O     10.41286216      9.18429622     17.24176503
  H      9.56552213      8.83417363     17.52642106
  H     11.12106481      8.68161620     17.65086379
  O      2.14633946      5.82288142     18.28852256
  H      1.20897210      5.88970492     18.48467829
  H      2.28624930      5.15037510     17.61788071
  O     11.05795948      3.38467541     18.77244569
  H     10.23809004      3.85959446     18.92693193
  H     11.31986947      3.48761357     17.85461842
  O      4.18766122      5.25260328      5.43258236
  H      4.59451472      4.38716889      5.34835908
  H      3.74928799      5.48204938      4.60991390
  O     -3.38108910      3.98781439     12.75898465
  H     -3.84889265      4.72814280     12.36569889
  H     -3.54878354      3.19383603     12.24607438
  O      1.51588187      9.50259711     18.97243926
  H      1.69974074      9.88208240     18.11000848
  H      1.15097721      8.62135002     18.86359008
  O      1.01930167      9.65841855      6.51020109
  H      1.71720308     10.14996751      6.94941998
  H      0.54610243      9.12792231      7.15538032
  O      2.87301883     -0.97738989     22.67458809
  H      2.02060733     -1.34669903     22.91667362
  H      3.17703401     -0.38998816     23.37038545
  O      4.58916687     -0.84679161     19.93622593
  H      4.58754226     -1.79897235     20.05849291
  H      4.30444707     -0.41909044     20.74715524
  O      8.37292800      8.11035948     10.98848391
  H      7.57315316      8.32468923     10.50266196
  H      9.09082388      7.95355816     10.37071466
  O      0.38318705      1.05838611     18.05501028
  H      1.29706111      1.14612449     17.77441060
  H      0.25088627      1.54418817     18.87237976
  O      3.54534898      6.28323140     15.99431472
  H      3.62422183      6.99744863     16.63092514
  H      2.61716706      6.10460418     15.82647361
  O      3.15625969      6.17190498     13.88590248
  H      4.05691010      5.84036039     13.90841976
  H      2.54237069      5.43532866     13.93275981
  O      0.04855118      2.06653726      8.62957051
  H      0.16596706      1.27637339      9.16197503
  H      0.81764787      2.63336202      8.72337867
  O      9.90636705      3.03188535     15.28358944
  H     10.07462845      3.78952415     14.71854824
  H      9.69946417      2.26728530     14.74120768
  O      5.31948053      1.75926479      6.30193450
  H      6.21598657      2.08187263      6.18445644
  H      4.72495326      2.50281787      6.42549074
  O      3.51753749      3.42377839     10.30514504
  H      4.41836596      3.09493586     10.34953707
  H      2.95920562      2.77177600      9.87530971
  O      0.16998716      8.09658405      1.54295992
  H     -0.63321474      8.24715043      1.03917775
  H      0.93240065      8.32632212      1.00672667
  O     -0.69753178     -2.82392993     -0.43242607
  H     -0.83050036     -3.56177673      0.16715833
  H     -0.09657348     -2.19073756     -0.03303084
  O      7.64652748      1.83315833     -1.13550729
  H      7.05807958      1.08235792     -1.24333966
  H      7.20216878      2.51878033     -0.63145589
  O      1.16726269      9.95566855     14.91975392
  H      1.86749539     10.51448964     14.57480008
  H      0.34145762     10.44513268     14.92817116
  O     -5.90921971      2.08632158     10.54570078
  H     -5.83703469      1.54608751     11.33597698
  H     -5.46734485      1.64673240      9.81555835
  O     -0.77473970      4.76080713      9.68927235
  H     -0.88110310      5.49971418     10.29284770
  H     -1.60494557      4.59455034      9.23681584
  O      9.82480488     12.04335781      5.94397060
  H     10.57949882     11.83547519      6.49968806
  H      9.07672863     12.28284552      6.49590135
  O     12.26692049      1.11812400      2.86784377
  H     12.10876424      0.89647915      1.94726777
  H     12.44621123      0.31625042      3.36428469
  O      7.51154648      5.36126830      3.08539795
  H      6.74297484      4.81126025      2.91690826
  H      7.86630652      5.68008420      2.25227027
  O      6.90259109      2.41878198      1.66941138
  H      7.66649880      2.15036331      2.18515979
  H      6.25814385      2.83696118      2.24509699
  O      4.56167586      2.54332771      1.22055331
  H      4.00710536      1.87109724      0.81786516
  H      5.03615116      3.01991963      0.53547424
  O      5.21704061     -3.46430142     14.40762553
  H      4.44869927     -4.03064710     14.51011532
  H      4.93651059     -2.59275274     14.11899808
  O     -4.25177091      8.35637622      1.10253499
  H     -3.88465441      7.71767066      1.71806784
  H     -3.58195840      9.00627103      0.87761736
  O     -2.79963682      5.73540147      6.11666727
  H     -2.78296291      5.02016447      5.47654382
  H     -3.08412658      5.39643538      6.96858720
  O     -3.54548576      8.10372895      7.20367002
  H     -4.14772562      7.93464151      6.47544162
  H     -3.77600678      7.54192487      7.94719960
  O      3.40918414      7.91055464      5.79001297
  H      2.68629089      8.42244539      6.16013892
  H      3.10363560      7.44235218      5.00961144
  O     10.24130639     10.02305311      9.81115364
  H     10.94125302      9.76034953      9.20893976
  H     10.03501127     10.95103708      9.67740730
  O      0.71241551      3.49070301     11.15674023
  H      0.47500028      2.67639101     10.70715153
  H      1.39583589      3.94451298     10.65814912
  O     10.82577519     -0.70644151      5.42902348
  H     10.54638996     -1.49007342      4.94999851
  H     11.04323781     -0.00999910      4.80510203
  O      9.58255413      7.48910325     15.60340556
  H      8.92678729      7.37973543     16.29594332
  H     10.45880659      7.52225399     15.99415184
  O     -0.75269009     10.02490071     20.77931606
  H     -1.05470217     10.67822657     20.14405704
  H     -0.01362031     10.38067651     21.27811406
  O      8.19515930      0.01334803     -3.14377293
  H      8.85460450      0.65742808     -2.87564436
  H      7.63180973      0.39452193     -3.82122677
  O      1.24804937      3.89108467     23.53916329
  H      2.08184759      4.21868479     23.88421212
  H      0.52121916      4.32435461     23.99258914
  O      1.37048501      3.42778247      2.36377760
  H      0.44686567      3.68237933      2.30288632
  H      1.80663258      3.60142208      1.52638606
  O      7.48230617     -1.82046606     21.45035793
  H      7.32114105     -2.62639734     20.95427267
  H      7.72407337     -1.11498758     20.84583437
  O      3.23041830      4.67908353     21.57595345
  H      3.92030827      4.93662286     22.19184739
  H      2.37130224      4.87554690     21.95663933
  O      1.02420579      3.87221576     14.11299144
  H      0.82478623      2.93318875     14.10523817
  H      0.98564692      4.20057475     15.01426475
  O      2.86066413     12.42366092     16.24689774
  H      2.37132935     11.60044358     16.18007949
  H      3.74007688     12.24686215     16.58891442
  O      7.89926762      0.69812250     22.87736556
  H      7.37964579      1.18530976     22.23374943
  H      8.45065415      0.05608693     22.42419537
  O      3.65121868     -0.70398043      7.77020648
  H      3.46652579     -0.38670990      6.88317324
  H      3.13475397     -0.20127655      8.40436183
  O     -0.22760792     -0.75642195     20.82399550
  H      0.21488556     -0.61111601     19.98453990
  H     -0.79045586     -0.00485569     21.02387134
  O      0.38266209     -0.46018249      5.10249471
  H      1.18443094     -0.46505107      5.63045590
  H      0.30190152     -1.29462762      4.63475646
  O      5.82552727      1.09724232     14.62607063
  H      6.18565699      1.75440605     15.22610597
  H      6.06062474      0.21895125     14.93418423
  O     -1.58450142     -0.75116602     13.64548874
  H     -1.27822293     -1.08949966     14.49007375
  H     -0.90478058     -0.19530029     13.25742575
  O      8.96185781     -0.17527201     18.46033045
  H      9.54151709     -0.29880901     17.70512602
  H      8.82533896      0.76320871     18.60938263
  O     -1.34246190     10.82697681     13.49656756
  H     -1.49281866      9.88178209     13.42173580
  H     -1.62922558     11.26190721     12.69021644
  O      7.37624011      9.38951876     -1.34222264
  H      7.55004231      9.19553693     -2.26621606
  H      6.67977727     10.04713487     -1.27834335
  O      8.45335482      8.59260989     21.28365718
  H      7.74998811      8.36114432     20.67267522
  H      9.28311446      8.66159729     20.80580816
  O      7.92085736      4.72222353     14.56545726
  H      8.06370748      3.81421168     14.84241993
  H      7.67683422      5.25464753     15.32610001
  O      2.57583749     12.53796663     12.75755379
  H      1.72844912     12.14044192     12.97087759
  H      3.17392325     11.86172714     12.43106709
  O      3.69679506      9.48034797     17.39930652
  H      3.81029215      9.13298492     18.28703244
  H      4.10194450     10.34869366     17.34074288
  O      8.13053253      8.66160643      4.63592349
  H      9.06549634      8.81894934      4.78654181
  H      7.61935856      9.07323937      5.33653716
  O     13.03863458      3.24578487     14.71529854
  H     13.27261732      2.31798544     14.63757917
  H     12.78609256      3.58583825     13.85379623
  O      0.59202213     -2.32054555      2.39956913
  H      1.22209912     -1.95289035      1.77552374
  H     -0.21260989     -2.56462902      1.93632992
  O     -1.82921447      2.68676070     20.66641493
  H     -2.58635093      2.13001648     20.86232375
  H     -1.15512304      2.16657591     20.22300934
  O      9.40898605      9.19669188     12.93523497
  H      9.84312218      9.10310845     12.08413688
  H      8.45973247      9.10876577     12.82215698
  O      7.37252379      8.20310204     14.64580605
  H      8.00512640      7.55871322     14.31995795
  H      6.60550123      8.21932523     14.06873308
  O     11.16197386      4.83103298     -0.15936575
  H     12.00721969      5.26801338     -0.03205665
  H     11.19780587      3.94828986      0.21624131
  O      6.73385328      3.12680667      4.44474720
  H      6.32270644      2.30097184      4.17912507
  H      7.68506100      3.06183736      4.33257382
  O      4.60776934      5.96286384     18.89095327
  H      4.39688572      5.23349509     18.30345917
  H      4.50371843      6.79339211     18.42085095
  O      7.19118236      8.65790760      1.57140281
  H      7.59894184      8.09663280      0.90784964
  H      7.61700657      8.51276737      2.41946416
  O      6.47376231      7.54260390     18.52403804
  H      6.27549887      8.33261109     18.01592364
  H      6.62870356      6.80759390     17.92624751
  O     -4.40121488      3.97135984      2.14888349
  H     -4.58592735      4.81478313      1.72921879
  H     -4.15760882      3.32718544      1.48008200
  O     -1.22462919     10.13118680      8.46091883
  H     -0.38870287     10.08882279      8.93105975
  H     -1.93701776      9.87183769      9.04985055
  O      3.01963907      5.54398772      0.69396187
  H      3.29800460      6.32599742      0.21170316
  H      3.65737760      4.83950237      0.55761687
  O      3.09709461     10.69978920     21.46120287
  H      2.28252171     10.42644312     21.88940016
  H      3.06711582     10.45939908     20.53227129
  O      7.54931689      1.26092809     16.71412164
  H      6.91143025      1.67857069     17.29745285
  H      7.29433497      0.34808463     16.56147487
  O     -1.09961445      5.13126946      4.35998963
  H     -0.89782992      5.91861175      3.84913238
  H     -0.35747988      4.52369297      4.31891554