#B3LYP/6-31+G(d) OPT FREQ

62, Energy =    -96.25319102 au

0 1
  N     11.47028149      1.28477923      6.67318314
  C     12.37171152      2.00619725      7.35313391
  N     12.79799903      1.28672468      8.39204151
  C     12.24593463      0.04088663      8.31408450
  C     11.41721017      0.03439526      7.24357145
  C     10.81965094      1.67640774      5.44967201
  C     11.56765470      1.12833601      4.23861166
  C     13.79332017      1.67501686      9.34686379
  H     12.52816035      3.05687821      7.22608866
  H     12.45512131     -0.69731016      9.06598637
  H     10.79604089     -0.74035880      6.84536754
  H      9.78771367      1.30902869      5.47430811
  H     10.80756525      2.76774276      5.41209864
  H     11.15185556      1.53428479      3.32046589
  H     11.50745894      0.04332829      4.20973402
  H     12.61433852      1.41559919      4.32318306
  H     14.78244364      1.59841434      8.89085401
  H     13.72103476      1.00145435     10.20339250
  H     13.62812138      2.70442751      9.66319779
  N      8.67913398     -2.66575125     14.41588129
  C      8.40995197     -2.59179433     13.10430686
  N      9.54487984     -2.32745689     12.45192393
  C     10.57762736     -2.35479590     13.34579585
  C     10.04384461     -2.56681461     14.57058156
  C      7.74527217     -3.00878862     15.45686727
  C      7.85483815     -4.48620986     15.82160661
  C      9.70704200     -2.18709334     11.03456797
  H      7.42792133     -2.48159155     12.69377709
  H     11.58356750     -2.16169616     13.02155280
  H     10.50789680     -2.64572332     15.53135028
  H      7.94752882     -2.37317569     16.32671280
  H      6.74004523     -2.79652668     15.08613863
  H      7.06878318     -4.76297312     16.51923971
  H      8.82203652     -4.70108447     16.26948235
  H      7.75469535     -5.07085470     14.90910798
  H      9.61473649     -3.16581590     10.55879648
  H     10.70103211     -1.76929569     10.85214230
  H      8.94395867     -1.52057810     10.63228867
  N     -1.96383074     15.46692928      3.19341085
  C     -2.40545235     14.66830634      4.15898735
  N     -1.58087992     14.75628199      5.19689811
  C     -0.58202297     15.63342110      4.87853010
  C     -0.82546909     16.08061239      3.61690133
  C     -2.57970470     15.69078897      1.90578324
  C     -3.98234355     16.26118172      2.07464215
  C     -1.75609497     14.04527282      6.43191034
  H     -3.29551524     14.04375594      4.18972786
  H      0.20996774     15.86832562      5.55911440
  H     -0.31487912     16.77642968      2.96203125
  H     -1.93021745     16.39519267      1.36773201
  H     -2.62031772     14.74055627      1.36544036
  H     -4.43180945     16.41734434      1.09872419
  H     -3.93320890     17.21858708      2.58719385
  H     -4.61058385     15.58311442      2.64898828
  H     -2.69434835     13.48145045      6.35555460
  H     -1.81754144     14.74805932      7.26388005
  H     -0.92331616     13.36147635      6.60073463
 Cl     -0.17124387     17.84790041      1.05363154
 Cl     12.76559525     -0.77569978     11.47053327
 Cl     14.39716382      2.03738498      5.87710354
 Cl      7.92629073     -4.94616997     12.46257614
 Cl     -4.63683873     12.84521082      5.34900239

