#B3LYP/6-31+G(d) OPT FREQ

62, Energy =    -96.27400835 au

0 1
  N      3.08734629      3.39849422      7.73388911
  C      3.35336934      2.34321551      8.50371540
  N      2.41925455      1.42396335      8.30820208
  C      1.53038299      1.89437571      7.39103119
  C      1.94660675      3.13768628      7.02903084
  C      3.84585309      4.62654569      7.69056998
  C      4.27143019      4.98866605      6.27336264
  C      2.38328558      0.12964723      8.92300777
  H      4.22625360      2.17764210      9.12547310
  H      0.73369043      1.27796761      7.02276589
  H      1.54552718      3.82683098      6.30827803
  H      3.22066088      5.43077391      8.09464702
  H      4.71307394      4.49504351      8.34260915
  H      4.77156373      5.95350047      6.28188095
  H      3.40250476      5.05133503      5.62136471
  H      4.95711273      4.25106525      5.86719153
  H      2.03426827     -0.59362164      8.18128985
  H      1.69159879      0.13171716      9.76694853
  H      3.38423213     -0.11485255      9.27517920
  N      5.84487070      1.46972371      5.74116561
  C      5.11267057      1.93832514      4.73490504
  N      3.91134179      1.36978940      4.77628294
  C      3.87799139      0.51144472      5.83337700
  C      5.09098443      0.58045140      6.44776487
  C      7.21150494      1.84471950      6.01690545
  C      7.31885371      2.64723827      7.30772725
  C      2.79706867      1.63443546      3.90956085
  H      5.50207809      2.61561014      3.98598416
  H      3.00453491     -0.09037287      6.03413387
  H      5.44726333      0.11538288      7.34581760
  H      7.80479940      0.93009017      6.10219837
  H      7.56228332      2.42821364      5.16030680
  H      8.36620970      2.83131253      7.53052926
  H      6.87639834      2.10205676      8.14041379
  H      6.81975987      3.60649204      7.20067167
  H      2.00968494      0.91845093      4.13882609
  H      3.09889927      1.54092240      2.86715974
  H      2.41275933      2.64526817      4.07357490
  N      4.56886223      6.49803204      2.97082274
  C      3.62380326      7.17366780      3.61182832
  N      4.08539971      8.38436387      3.91231407
  C      5.35936228      8.48904896      3.44574966
  C      5.66214865      7.30134544      2.85135524
  C      4.41914360      5.17033053      2.43143757
  C      4.12756143      5.23331170      0.93567427
  C      3.39537308      9.42085370      4.62603725
  H      2.66410023      6.75190202      3.87289049
  H      5.89505113      9.41805313      3.54642123
  H      6.56312788      6.95633201      2.38825512
  H      5.34722254      4.61386891      2.60914978
  H      3.58543447      4.69904722      2.95483148
  H      4.05822690      4.22355254      0.54248280
  H      4.92575412      5.75395029      0.41048466
  H      3.18599680      5.74738642      0.75014130
  H      2.36322559      9.48593866      4.28719703
  H      3.92495397     10.36539365      4.43965029
  H      3.40520840      9.21132252      5.69649342
 Cl      5.53431597     11.76122414      3.82703819
 Cl      7.27332593      3.51270960      2.98672351
 Cl      1.39696247      4.95031764      4.28359559
 Cl      0.98366513     -1.05422131      6.10283790
 Cl      5.73201840      0.81604825      9.88596855

