#B3LYP/6-31+G(d) OPT FREQ

62, Energy =    -95.80703172 au

0 1
  N      3.85746792      9.64911333      2.71269566
  C      3.51311852      9.50956524      1.42697245
  N      2.17867627      9.48067588      1.35393419
  C      1.66179830      9.63233571      2.61056742
  C      2.72231268      9.74036823      3.47016040
  C      5.23001471      9.78193129      3.21459309
  C      5.44482641     11.12707405      3.88274049
  C      1.39943184      9.49483142      0.12122990
  H      4.18413390      9.49745968      0.58720869
  H      0.60362816      9.67773862      2.79164698
  H      2.74818434      9.90144030      4.53191850
  H      5.40703772      8.95674700      3.90381768
  H      5.88478196      9.65834452      2.35509819
  H      6.47461023     11.18606758      4.23240215
  H      4.78074989     11.25936314      4.73432434
  H      5.25932961     11.93655625      3.18367001
  H      0.99392035     10.49327974     -0.01814394
  H      0.60397311      8.75882694      0.20039606
  H      2.05587586      9.26239837     -0.70959518
  N      0.95885911      6.84454265      4.36486899
  C     -0.31157648      7.23055212      4.19716555
  N     -0.89178747      6.39030191      3.33447205
  C      0.01495938      5.43543255      2.96660622
  C      1.18486919      5.72085596      3.61860806
  C      1.92262862      7.46919924      5.27831238
  C      2.36780541      6.49966583      6.35710645
  C     -2.31126408      6.36928991      3.00036607
  H     -0.80684100      8.02979655      4.71825360
  H     -0.24151402      4.62838419      2.30519136
  H      2.12513794      5.20147060      3.62740130
  H      2.76264945      7.81790640      4.67825813
  H      1.42327377      8.33518530      5.70660925
  H      3.07391090      7.00470809      7.01478844
  H      2.85482406      5.62531240      5.93047784
  H      1.51841683      6.15914570      6.94102007
  H     -2.77467009      5.53462616      3.51936026
  H     -2.41694481      6.26578319      1.92387064
  H     -2.76448128      7.29242030      3.34335100
  N      6.91491985      6.41295785      5.91367082
  C      6.64142487      6.98751120      4.73629097
  N      5.68513492      6.27206777      4.13582823
  C      5.32216863      5.23968334      4.95541867
  C      6.09804524      5.32870278      6.08029772
  C      7.86760084      6.92296311      6.90650511
  C      7.16892873      7.29324987      8.20138698
  C      4.99595325      6.64649274      2.90626867
  H      7.05968895      7.90551274      4.36488867
  H      4.53934688      4.55126150      4.69495606
  H      6.10492934      4.73263152      6.97393941
  H      8.62174138      6.15193250      7.06168449
  H      8.34818130      7.78789502      6.45521750
  H      7.90891398      7.67271558      8.90468340
  H      6.67493037      6.43269461      8.64759695
  H      6.41842194      8.05794725      8.02718162
  H      4.00848803      7.01898802      3.16496422
  H      4.92681305      5.77354946      2.26290709
  H      5.55453323      7.43817393      2.42001410
 Cl      1.45697954      0.16132464      7.20056508
 Cl      7.26937802      5.64681149      2.85856646
 Cl      3.89388892      3.84357201      2.20264464
 Cl      0.54418350      5.20342466      5.44118509
 Cl      5.67974777      8.04119530      0.48942714

