#B3LYP/6-31+G(d) OPT FREQ

62, Energy =    -96.28285257 au

0 1
  N      6.69572053      2.09933755      7.34279059
  C      5.48111567      1.57745602      7.19063366
  N      4.87732956      2.17597073      6.17174909
  C      5.72697619      3.10445935      5.65595836
  C      6.87380815      3.05297949      6.38862597
  C      7.67579492      1.72912226      8.33031543
  C      8.66085211      0.71323139      7.76173909
  C      3.53397323      1.92676097      5.74078836
  H      5.00486477      0.86220121      7.83537841
  H      5.42872074      3.74556843      4.85134413
  H      7.75917423      3.65736409      6.37531946
  H      8.20042001      2.65324698      8.61385319
  H      7.15282932      1.31165081      9.19256104
  H      9.39045696      0.45009744      8.52180979
  H      9.18863574      1.13973206      6.91269154
  H      8.14610493     -0.19167496      7.44022960
  H      3.51206667      1.14496035      4.97997649
  H      3.13170829      2.85243368      5.32240767
  H      2.95588974      1.61120109      6.60927973
  N      5.71331369      4.74571903      9.62942579
  C      5.99345939      5.89584098      9.02903559
  N      5.27689544      5.99385410      7.92006804
  C      4.50020668      4.88215985      7.81161900
  C      4.77495502      4.09392500      8.88398775
  C      6.35872958      4.27734444     10.82869662
  C      5.82770679      4.99009963     12.06989714
  C      5.23844291      7.11140052      7.02436312
  H      6.70117525      6.61789604      9.37927763
  H      3.83909929      4.75277397      6.97557307
  H      4.36372980      3.14168310      9.15986675
  H      6.19413697      3.20005020     10.90005560
  H      7.42896019      4.46468785     10.69943543
  H      6.54271492      4.91034384     12.88408101
  H      4.88246777      4.55904055     12.39055902
  H      5.65947537      6.04079387     11.84773049
  H      4.81095243      7.96937560      7.54689381
  H      4.61392459      6.84969613      6.17212908
  H      6.24556671      7.35725638      6.68838131
  N      1.03463667      4.47279105      7.51393472
  C      1.40516466      4.00560347      8.70247319
  N      1.83292917      5.01906468      9.44730188
  C      1.73941751      6.16356574      8.71818149
  C      1.23612076      5.81924077      7.50143445
  C      0.49338103      3.70273278      6.42517059
  C     -1.01082879      3.91886882      6.29670912
  C      2.32293403      4.94414262     10.79197494
  H      1.48293476      2.96215314      8.96753103
  H      2.10673647      7.09328760      9.11032608
  H      1.05698209      6.40712738      6.62607173
  H      1.01403562      4.02412222      5.51583420
  H      0.71224389      2.65193817      6.61753890
  H     -1.39322437      3.32784532      5.46947879
  H     -1.23250847      4.96581828      6.10422020
  H     -1.52262133      3.61445137      7.20840978
  H      1.50896647      5.10819274     11.50111680
  H      3.06886692      5.73726084     10.92078846
  H      2.75666454      3.96220346     10.96338022
 Cl      8.64448506      4.82597837      8.40783023
 Cl      2.88259056      1.17483933      9.05511831
 Cl     24.74355383     17.84949174    -13.67955368
 Cl      2.95429940      5.07799542      4.76092593
 Cl      4.13471965      7.65760206     10.37455797

