#B3LYP/6-31+G(d) OPT FREQ

62, Energy =    -96.27106883 au

0 1
  N      8.64478795      5.85215736      5.12230891
  C      8.65128034      4.53238631      5.28622027
  N      8.68823887      3.95116140      4.09451783
  C      8.70892563      4.93169954      3.14478344
  C      8.68484664      6.13001675      3.78936888
  C      8.63568027      6.82298775      6.18793029
  C      9.94508340      7.60224154      6.21768173
  C      8.69336964      2.53549474      3.86428022
  H      8.59829311      4.01105964      6.24030350
  H      8.72475569      4.70609445      2.09901651
  H      8.74593760      7.15013501      3.42665785
  H      7.81396302      7.52229850      6.01302185
  H      8.47023863      6.27848848      7.12102275
  H      9.95205511      8.27449418      7.07114264
  H     10.03134677      8.19372437      5.30559479
  H     10.79177373      6.92366691      6.29604297
  H      9.56531961      2.25452192      3.27304696
  H      7.78788389      2.23033295      3.32283582
  H      8.72190815      2.02746836      4.82508383
  N      5.39469497      4.64317369      7.02661423
  C      5.43131189      3.33116991      7.22272664
  N      5.56926979      2.71928430      6.05574263
  C      5.60470949      3.66222381      5.07480248
  C      5.48961045      4.87058347      5.68337712
  C      5.17169168      5.64719149      8.03567099
  C      5.92461888      5.32463372      9.32084395
  C      5.71498489      1.30706690      5.85488888
  H      5.37022924      2.84091630      8.17071386
  H      5.69325178      3.38309147      4.04092511
  H      5.46383041      5.85741804      5.26899744
  H      5.50007976      6.60458899      7.62211348
  H      4.09311984      5.69532799      8.22731717
  H      6.04328688      6.22234384      9.92213109
  H      6.90516425      4.91636660      9.08446438
  H      5.38322381      4.58566125      9.90493309
  H      6.61808752      0.96788952      6.36422904
  H      5.79455566      1.11627978      4.78396797
  H      4.85405725      0.78120846      6.26754378
  N      1.35901288     -0.30086435      5.75252300
  C      1.95669518      0.87558392      5.57971116
  N      2.20079953      1.04851748      4.28666775
  C      1.75338776     -0.05293418      3.61726215
  C      1.22160966     -0.90098286      4.54007940
  C      0.90354070     -0.86011593      7.00324185
  C      0.00973521      0.12370117      7.74714032
  C      2.81252631      2.21137891      3.71130143
  H      2.18985667      1.60995218      6.34448961
  H      1.85606161     -0.15011765      2.55655258
  H      0.73053495     -1.85973435      4.46445323
  H      0.35859421     -1.78063626      6.75467697
  H      1.77510644     -1.10928615      7.61579166
  H     -0.32443364     -0.32624119      8.67787595
  H     -0.86470787      0.36057881      7.14592471
  H      0.54296150      1.04439362      7.97418508
  H      3.77976417      1.95958103      3.25974174
  H      2.96112375      2.94970885      4.49646308
  H      2.16722948      2.62714415      2.93711834
 Cl      2.62100730      3.34154402      7.49017444
 Cl      8.21567399      2.98937066      8.00979241
 Cl     -0.56474652     -3.44951694      5.45138819
 Cl      5.85122140      1.64704171      2.38354900
 Cl      9.31824821      9.26097101      3.28295778

