#B3LYP/6-31+G(d) OPT FREQ

62, Energy =    -96.29618929 au

0 1
  N      5.27503313      5.99106994      3.98950911
  C      5.03444265      5.07487924      3.05930809
  N      4.86965116      3.89629596      3.65132036
  C      5.00012032      4.06973331      4.99669202
  C      5.25256570      5.38967090      5.20904201
  C      5.54035131      7.38347876      3.73352732
  C      4.26353173      8.20895064      3.84808807
  C      4.66170911      2.63776088      2.99621517
  H      5.11793716      5.27000392      1.99408643
  H      4.94222996      3.24400401      5.67432976
  H      5.48345574      5.93451189      6.10234145
  H      6.27667135      7.71544601      4.47089784
  H      5.94878725      7.45532855      2.72315218
  H      4.49006612      9.25412777      3.65965586
  H      3.83941373      8.12083415      4.84632843
  H      3.52863811      7.87576914      3.11779215
  H      3.63684509      2.29212440      3.14239066
  H      5.34851963      1.90529242      3.43385661
  H      4.86012954      2.75116320      1.93325806
  N      9.32826217      4.16347580      6.70112483
  C      9.43078011      3.11750245      5.88723528
  N     10.41074821      3.34274948      5.01773963
  C     10.94867252      4.56381390      5.27449059
  C     10.26789666      5.08031495      6.33382809
  C      8.35681395      4.38035830      7.74680361
  C      7.45832488      3.17843313      7.96711687
  C     10.81064373      2.47083819      3.95315692
  H      8.76396537      2.27071435      5.84336601
  H     11.70898020      4.97712595      4.64126374
  H     10.34366116      6.03085393      6.81929022
  H      8.89906199      4.62784963      8.66604462
  H      7.77431516      5.26658175      7.45727119
  H      6.68611424      3.43469412      8.68706320
  H      8.02479885      2.33257397      8.35317378
  H      6.98086209      2.87683234      7.03933620
  H     11.67759996      1.87773303      4.24998979
  H     11.08582853      3.09539423      3.09497046
  H      9.98464255      1.80790021      3.70764085
  N      8.35852469      4.19306703      1.85012721
  C      8.81574656      5.42670424      1.67412335
  N      8.73576178      6.08779765      2.81789927
  C      8.22393641      5.25084888      3.76077295
  C      7.98361953      4.05898145      3.15427013
  C      8.21967291      3.21253261      0.80494522
  C      9.56472905      2.59523660      0.42973130
  C      9.20413028      7.41847206      3.06820773
  H      9.17404382      5.82763414      0.74911744
  H      8.04680320      5.59769359      4.76052974
  H      7.60479701      3.13783981      3.55667509
  H      7.52780969      2.44479527      1.15786222
  H      7.77289300      3.72333345     -0.05268240
  H      9.51467193      2.15546797     -0.56255897
  H      9.84390689      1.82217183      1.14072521
  H     10.33816381      3.35914486      0.44172172
  H     10.29024909      7.43470318      2.95887181
  H      8.93075445      7.69604944      4.08478096
  H      8.75884146      8.11355383      2.35675094
 Cl      7.64499534      7.30286971      6.43392569
 Cl    -53.05826221     40.53482492     45.96702559
 Cl      7.00192596      1.24410238      4.90130323
 Cl     11.63314242      5.04672926      2.08848864
 Cl      6.26725322      6.08114649      0.40978863

