#B3LYP/6-31+G(d) OPT FREQ

62, Energy =    -96.27581349 au

0 1
  N      0.84519005      8.19896109      7.47174181
  C      2.07544989      8.52772516      7.85207531
  N      2.76007666      7.41865431      8.09312020
  C      1.95098267      6.35261734      7.84722191
  C      0.74274672      6.84016658      7.45727183
  C     -0.19934744      9.10938638      7.07456312
  C     -0.51689724      8.93769358      5.59350337
  C      4.14806928      7.37918349      8.44782674
  H      2.47605921      9.51759603      8.03080432
  H      2.29255549      5.34426639      7.94999675
  H     -0.16773603      6.34681237      7.15059646
  H     -1.09488530      8.88832937      7.66175157
  H      0.14010822     10.12327177      7.29920415
  H     -1.22379639      9.69706192      5.27272312
  H     -0.96118049      7.95786714      5.43263103
  H      0.38686564      9.02819121      4.99570656
  H      4.72194587      7.05095593      7.57936623
  H      4.30876591      6.68173960      9.26936243
  H      4.45728827      8.38270469      8.73883871
  N     -0.25318841      6.44312216      2.90403203
  C      0.60944431      5.97640164      3.80132658
  N      0.16764285      4.81658302      4.26796701
  C     -1.02101993      4.53826410      3.67454531
  C     -1.27981643      5.55197734      2.80548056
  C     -0.09439820      7.62106272      2.09018872
  C      0.60472723      7.29151042      0.77655555
  C      0.78267379      4.05419172      5.31250911
  H      1.53554174      6.43172745      4.12045823
  H     -1.59861373      3.67424258      3.92686685
  H     -2.11831205      5.71701071      2.16140739
  H     -1.07919724      8.04780064      1.89454046
  H      0.49641042      8.36899573      2.62086814
  H      0.83369883      8.22989235      0.28073062
  H     -0.02177780      6.68101835      0.12917880
  H      1.53748493      6.76617162      0.96913776
  H      0.89516709      3.01478555      5.00420647
  H      0.14099714      4.10914950      6.19374277
  H      1.75568484      4.49333300      5.52777651
  N      3.92463311      9.23151941      3.87388486
  C      3.11213212     10.24950728      4.12559043
  N      3.38599373     10.72809123      5.33479319
  C      4.40382622      9.99552066      5.86871555
  C      4.74082332      9.05303274      4.94764660
  C      3.91391833      8.44825101      2.66475599
  C      5.17947321      8.68477101      1.84924107
  C      2.75137050     11.84272222      5.97980689
  H      2.35752506     10.59209732      3.42075195
  H      4.75397787     10.19102967      6.86462344
  H      5.45948968      8.26269316      4.99029439
  H      3.83312544      7.39722433      2.95701302
  H      3.03598749      8.75818992      2.09213700
  H      5.14749439      8.07931665      0.94799737
  H      6.06726429      8.41544832      2.41773480
  H      5.24725997      9.73109875      1.55979482
  H      2.93793809     11.76722706      7.05534329
  H      1.68362447     11.83429556      5.76961352
  H      3.17242979     12.78054671      5.61356039
 Cl      3.86757361     10.90281995      8.99797643
 Cl      3.50227528      6.24214009      5.19437077
 Cl     -2.03512727      5.65723762      6.19416854
 Cl      1.23991397     10.54601528      1.63082301
 Cl     21.70175286    -17.81410368      1.13667337

