#B3LYP/6-31+G(d) OPT FREQ

62, Energy =    -96.26551573 au

0 1
  N      3.55722111      2.13791453      6.52189481
  C      2.73247475      2.26215194      5.48441556
  N      1.71367513      1.42498596      5.64648969
  C      1.88176576      0.74266977      6.80961633
  C      3.04207411      1.19102138      7.36076442
  C      4.77884181      2.88688853      6.72244560
  C      4.51986625      4.38427012      6.77534451
  C      0.59699341      1.24016334      4.76193317
  H      2.86892030      2.95496178      4.65751933
  H      1.16265772     -0.01322986      7.09994684
  H      3.53141356      0.91040702      8.26997086
  H      5.23157860      2.54451931      7.65442760
  H      5.46694147      2.67070113      5.90175800
  H      5.47137232      4.89246916      6.91468332
  H      3.85734427      4.63409735      7.60053799
  H      4.07365046      4.72040997      5.84490681
  H     -0.04050867      2.12423092      4.77205724
  H      0.03081395      0.37273955      5.12127927
  H      0.94804882      1.07399215      3.74471929
  N      5.06531991      7.77240301      5.33389581
  C      5.61023953      7.95408750      6.53148952
  N      4.93443465      8.90103127      7.17382561
  C      3.93137848      9.34231042      6.36804780
  C      4.01514832      8.63321447      5.20888926
  C      5.56617751      6.85996612      4.33602597
  C      6.24601997      7.61812082      3.20149542
  C      5.17811344      9.39299511      8.50018040
  H      6.44901334      7.37671791      6.89876077
  H      3.29384350     10.14915669      6.69701202
  H      3.40816656      8.66218679      4.32827201
  H      6.28443324      6.20918432      4.83621626
  H      4.74070706      6.25570876      3.94738374
  H      6.62341715      6.91261162      2.46752524
  H      7.08075175      8.20211158      3.58336208
  H      5.54664947      8.28799614      2.70647830
  H      4.84328278      8.66404474      9.23890872
  H      4.60415792     10.32183696      8.62032472
  H      6.24134287      9.57752574      8.64219535
  N      8.56598059      4.25427360      3.14744258
  C      8.03980901      4.11882950      1.93616575
  N      6.74502654      3.84455753      2.06454444
  C      6.44071598      3.80344725      3.39287425
  C      7.58708072      4.06452906      4.07660063
  C      9.93332339      4.63013131      3.41107436
  C      9.98509121      6.02085826      4.03379379
  C      5.78765519      3.64388712      1.01475955
  H      8.63745080      4.18699752      1.02607709
  H      5.42523814      3.67125128      3.71297974
  H      7.75734631      4.18973742      5.13043923
  H     10.37128525      3.89889633      4.09601078
  H     10.46170726      4.60047927      2.45263718
  H     11.01552062      6.28446970      4.25441662
  H      9.41073739      6.04887751      4.95802244
  H      9.57920947      6.75551404      3.34284316
  H      4.80497472      3.93411968      1.39345564
  H      5.75745603      2.59353797      0.71948988
  H      6.05544587      4.24596720      0.14906118
 Cl      7.79869786      5.62704872      6.99365787
 Cl      3.22605086      4.47763789      3.19730134
 Cl     -0.54033761     -1.31444809      6.56594583
 Cl     10.44434045      4.21920335     -0.02981849
 Cl      3.09710660     11.90702171      8.15723509

