#B3LYP/6-31+G(d) OPT FREQ

62, Energy =    -96.29346489 au

0 1
  N      4.95884970      4.77853310      3.54024150
  C      5.00155273      5.74666750      4.44860777
  N      5.33349016      6.88559567      3.85210792
  C      5.49601937      6.64346872      2.52272436
  C      5.25921827      5.31650448      2.32743957
  C      4.65810354      3.39610290      3.80787538
  C      3.17028121      3.11748456      3.62075954
  C      5.54567357      8.14764760      4.49762064
  H      4.92050350      5.58882536      5.51399924
  H      5.83362209      7.41350928      1.85872549
  H      5.32541010      4.70897753      1.44815268
  H      5.25114448      2.79237850      3.11176692
  H      4.96178898      3.18649642      4.83494096
  H      2.96990539      2.06845526      3.81726939
  H      2.86795061      3.34052927      2.59991394
  H      2.57636786      3.72081783      4.30517140
  H      4.67357261      8.79230416      4.37700508
  H      6.41064954      8.62422580      4.01781235
  H      5.73398630      7.98221614      5.55549791
  N      9.49386037      2.85569479      6.04617728
  C     10.14049717      2.37864302      4.98608972
  N      9.26716590      1.81125363      4.16184016
  C      8.02830913      1.92160012      4.71394753
  C      8.16844607      2.58027461      5.89704162
  C     10.14414666      3.62489589      7.08308690
  C      9.23798189      3.92626055      8.26058034
  C      9.55007783      1.19203171      2.90015918
  H     11.18545017      2.52798328      4.79796939
  H      7.15872664      1.57006916      4.19908371
  H      7.41908593      2.90920915      6.59078703
  H     11.02414635      3.06212476      7.41258554
  H     10.51058255      4.54076103      6.60423852
  H      9.77100869      4.55281512      8.97066649
  H      8.94066518      3.00866931      8.76553383
  H      8.34013315      4.45254729      7.94781751
  H      8.72655924      1.42656167      2.21550505
  H      9.61661521      0.10782746      3.01210804
  H     10.48790546      1.57616044      2.50715144
  N      9.09229770      5.72091226      2.56028018
  C      9.48977473      6.63185243      3.43530041
  N      8.86730794      6.42899929      4.58734537
  C      8.05318152      5.34490744      4.44849596
  C      8.19586072      4.89609139      3.17442394
  C      9.53079974      5.60832420      1.19471088
  C     10.38430030      4.35841883      1.01336158
  C      9.01654529      7.21451967      5.77618730
  H     10.21670336      7.39543965      3.25284175
  H      7.44225471      5.00219812      5.26151315
  H      7.74566291      4.06615317      2.66107168
  H      8.64626620      5.56625844      0.55288179
  H     10.09661650      6.51038586      0.95547753
  H     10.90594213      4.39078444      0.06058494
  H      9.75277686      3.47536081      1.03959857
  H     11.11270221      4.30236547      1.81935883
  H     10.03629795      7.12163751      6.15400482
  H      8.31279710      6.85310244      6.52359972
  H      8.81308990      8.26099787      5.54490761
 Cl      6.00288901      4.78089670      7.25353627
 Cl    -60.15766457     44.45642930     51.45958540
 Cl      6.75438507      2.23740041      1.48582105
 Cl     11.64228367      4.85690276      4.44071134
 Cl      7.98332817      8.77310276      2.47375424

