#B3LYP/6-31+G(d) OPT FREQ

62, Energy =    -96.26949789 au

0 1
  N      5.05704397      7.41149041     -0.57343971
  C      3.93835534      7.15791920      0.09991513
  N      3.74833285      8.11345281      1.00288805
  C      4.77008290      9.00494462      0.90476309
  C      5.59444367      8.56296404     -0.08466917
  C      5.60192880      6.65004419     -1.66693249
  C      5.29577328      7.32321807     -3.00074084
  C      2.66762272      8.18053347      1.94284258
  H      3.32475766      6.28414892      0.00016177
  H      4.83519177      9.83884924      1.57751045
  H      6.53684709      8.92850999     -0.43524926
  H      6.68865332      6.59202758     -1.50289502
  H      5.17174724      5.64804360     -1.63573643
  H      5.73667262      6.74492858     -3.80734821
  H      5.71946866      8.32407790     -3.02471478
  H      4.22111260      7.39307339     -3.16601669
  H      1.77569638      8.59534017      1.47062582
  H      2.97603004      8.82534904      2.77075226
  H      2.45518615      7.17123794      2.29261202
  N      2.52247109      2.28943410      4.22781502
  C      1.51221794      3.08547365      3.86481179
  N      1.45634623      4.11918734      4.71012077
  C      2.37231012      3.90796417      5.70339715
  C      3.04392920      2.77199402      5.39994173
  C      2.94690247      1.10873677      3.52552293
  C      4.20832918      1.39246830      2.71382645
  C      0.46011553      5.14578452      4.64695201
  H      1.03542574      3.06443255      2.90770970
  H      2.47405519      4.57703973      6.53302739
  H      3.83393796      2.26830954      5.91843114
  H      3.11815971      0.30824711      4.25159617
  H      2.12626883      0.81156323      2.87097195
  H      4.41488366      0.57277903      2.03161960
  H      5.06579587      1.52171423      3.37210207
  H      4.06782647      2.30543450      2.13958680
  H      0.54277143      5.67469840      3.69603342
  H      0.59682370      5.84493179      5.46903020
  H     -0.52495464      4.67743539      4.71359730
  N      6.43741799      5.28856224      2.75971010
  C      5.47098374      5.28352922      3.67217766
  N      5.17518922      6.53640594      3.99643869
  C      5.95886610      7.36686140      3.25322371
  C      6.74844142      6.58574560      2.46894262
  C      7.01777212      4.13481193      2.11919710
  C      6.51963236      4.02415524      0.68388100
  C      4.16351824      6.96404055      4.91949428
  H      5.00668709      4.41225298      4.08808413
  H      5.86001828      8.43215997      3.35021403
  H      7.46697267      6.83058923      1.70232586
  H      8.10454917      4.25053303      2.12185394
  H      6.74112429      3.25156705      2.70008735
  H      6.80852084      3.06656326      0.26034734
  H      6.96349309      4.82282840      0.09538548
  H      5.43634255      4.11196066      0.66877321
  H      4.07230993      8.05195134      4.83840807
  H      4.43581548      6.69029985      5.94002769
  H      3.21885552      6.49093523      4.65609767
 Cl     23.73420381    -18.07012311     22.63721517
 Cl     -0.41289329      1.81051015      4.63383002
 Cl      3.17507245      4.80032246      2.07730316
 Cl      8.52964334      6.80024410     -0.30701119
 Cl      4.31375016     10.18491053      4.02101737

