#B3LYP/6-31+G(d) OPT FREQ

62, Energy =    -96.19232371 au

0 1
  N      5.76417819      8.56247539      9.39909508
  C      7.05061327      8.03283151      9.83585757
  N      7.95425459      8.21958508      8.71924411
  C      7.25190501      8.93338150      7.74519077
  C      5.98816761      9.12311009      8.11655513
  C      5.00264153      9.36264667     10.33430156
  C      5.60431614     10.73958508     10.63535977
  C      9.33394276      8.49820629      8.99830606
  H      7.42897557      8.53384924     10.75108935
  H      7.73711544      9.18596386      6.82358953
  H      5.16127016      9.53804299      7.57862641
  H      4.00764832      9.49161136      9.89938804
  H      4.90247142      8.79144970     11.26338966
  H      4.95293326     11.29696264     11.30396017
  H      5.72092569     11.29630324      9.70876765
  H      6.58152634     10.64291136     11.10497799
  H      9.86775690      8.60500885      8.05574234
  H      9.75682514      7.66037587      9.55354939
  H      9.47349469      9.41923482      9.58891827
  N      7.05703548      5.69954819      8.99346687
  C      6.91654231      6.51523032     10.17745845
  N      7.98720223      6.07992563     11.06828127
  C      8.53592204      4.91357072     10.47104144
  C      7.98997195      4.71580549      9.27045424
  C      5.95765231      5.52973977      8.07675113
  C      6.43195831      5.55155347      6.62881332
  C      7.64686682      6.00661700     12.46769885
  H      5.91443596      6.37904634     10.65322599
  H      9.33084781      4.39193039     10.96471193
  H      8.22388693      3.96830758      8.53867246
  H      5.41387286      4.59105884      8.27863818
  H      5.27644368      6.36660574      8.22785963
  H      5.57267880      5.52739539      5.96463795
  H      7.07762164      4.70378590      6.41161374
  H      6.98604114      6.46700929      6.44926620
  H      8.51021385      5.64084173     13.02172164
  H      6.79068803      5.34154311     12.66684578
  H      7.39720792      7.00514979     12.82986176
  N      1.27723050      6.73512997      9.62300337
  C      0.49937518      7.07493481      8.59813403
  N      1.27081061      7.47497389      7.59260970
  C      2.57542159      7.38431522      7.97172136
  C      2.57857701      6.91648024      9.25061387
  C      0.79408300      6.21455767     10.87770532
  C      1.07598028      4.72024011     10.98625454
  C      0.84982855      7.93703366      6.30107361
  H     -0.58816279      7.05363112      8.68258095
  H      3.33409963      7.66721248      7.26219629
  H      3.39756027      6.71815517      9.91008869
  H      1.27910934      6.75466361     11.69512169
  H     -0.28923996      6.39827739     10.89620130
  H      0.70690090      4.34865430     11.93742493
  H      2.14304065      4.51321066     10.91707238
  H      0.56201565      4.19070292     10.18899446
  H      0.27180134      7.16032555      5.80228502
  H      1.75523375      8.17625867      5.73218229
  H      0.21355472      8.81383286      6.41415159
 Cl     -2.28978809      6.91090323      9.92986375
 Cl      5.70542763      8.87479234      4.25269899
 Cl     23.51361769    -27.16751248      5.25105610
 Cl      7.84641297      9.45967691      3.11808869
 Cl      4.04504379      8.42590854      5.20451875

