#B3LYP/6-31+G(d) OPT FREQ

62, Energy =    -96.24551326 au

0 1
  N      9.01226634      9.06864851      8.66947649
  C      8.19697862      8.81909353      7.64868655
  N      8.68527899      7.80617726      6.94557371
  C      9.84364306      7.39071405      7.52669949
  C     10.04885028      8.18227389      8.61354001
  C      8.78275913     10.08145805      9.67204598
  C      8.63871052      9.46599888     11.05859614
  C      8.10783311      7.19059642      5.78712725
  H      7.28561481      9.39047455      7.48697194
  H     10.34767958      6.51040364      7.17261476
  H     10.84351866      8.17871922      9.32998436
  H      9.61640421     10.79048101      9.65846367
  H      7.85699322     10.59772031      9.38527043
  H      8.43100244     10.25047886     11.78060381
  H      9.54475884      8.94367951     11.36032652
  H      7.81224865      8.76091977     11.07299639
  H      8.30252834      6.11161244      5.86446510
  H      8.58140770      7.56958728      4.88037140
  H      7.04155563      7.39686568      5.75143749
  N      0.39098951      2.01097866      4.34262150
  C      0.82171612      1.05388003      3.51628685
  N      0.15346505      1.14368084      2.36735513
  C     -0.78009232      2.13224163      2.48282002
  C     -0.63013394      2.67783740      3.71463056
  C      0.86606503      2.23262108      5.68546361
  C      2.09089889      3.14102848      5.70390570
  C      0.26496503      0.26904550      1.23701679
  H      1.67736130      0.43598226      3.68792790
  H     -1.41770539      2.36966251      1.64882623
  H     -1.16192621      3.47110388      4.19797829
  H      0.05721914      2.68694897      6.26147121
  H      1.09446191      1.25600439      6.11856816
  H      2.36888272      3.36981726      6.73089910
  H      1.87087588      4.07518414      5.18861773
  H      2.93290649      2.66065269      5.21021911
  H     -0.29098711      0.72031010      0.40875177
  H     -0.16036377     -0.70321627      1.49169106
  H      1.31187402      0.13880147      0.96237198
  N      4.77226314      7.04917003      8.23126091
  C      4.59574163      5.95065746      7.49161729
  N      5.72131998      5.23150137      7.51545262
  C      6.58909010      5.82230524      8.38926943
  C      5.99744902      6.95758051      8.83563198
  C      3.80816868      8.09203650      8.47850038
  C      3.08979395      7.85097445      9.80206102
  C      5.92835844      3.96303480      6.88152947
  H      3.78079788      5.79078655      6.81710286
  H      7.55748901      5.39949060      8.56852821
  H      6.33247583      7.71802061      9.50847563
  H      4.33912656      9.05003536      8.48317187
  H      3.08751825      8.08241306      7.65854524
  H      2.27080420      8.55545518      9.91648710
  H      3.77654746      7.97154219     10.63642388
  H      2.69975919      6.83557959      9.81380066
  H      5.43242366      3.18230367      7.46144283
  H      7.00096188      3.77299768      6.83045869
  H      5.50426203      3.97594678      5.87862168
 Cl     -1.54680293      2.30115106     -0.75153868
 Cl      3.13698855      4.47546663      8.91421163
 Cl      5.93470387     10.89278437      8.17582102
 Cl      9.39525111      4.39590291      6.82705126
 Cl     -0.14043607     -1.01196456      4.66227558

