#B3LYP/6-31+G(d) OPT FREQ

62, Energy =    -96.27945608 au

0 1
  N      4.72863397      8.63947744      1.80991591
  C      4.77122098      8.40270115      3.12713925
  N      3.71987852      7.65327723      3.46579651
  C      2.93154731      7.50359765      2.35772003
  C      3.55943952      8.11849229      1.32570335
  C      5.65429293      9.52974879      1.14893887
  C      5.37176473      9.68218299     -0.33421483
  C      3.38644829      7.21242979      4.78899365
  H      5.62598208      8.57016755      3.74810331
  H      2.01570960      6.95161835      2.40707498
  H      3.28591039      8.19875431      0.29692371
  H      5.57927891     10.49468123      1.66787079
  H      6.66670616      9.13621177      1.29835268
  H      6.13841290     10.31067331     -0.78050156
  H      4.40553413     10.15303312     -0.49837538
  H      5.39055638      8.71304344     -0.82929515
  H      4.29390807      6.93359817      5.32354131
  H      2.72162175      6.35108491      4.71570166
  H      2.89325819      8.01926161      5.33460493
  N      6.78492024      4.67309362      1.56196350
  C      6.82418878      3.97852086      2.69730146
  N      5.63989026      4.06453450      3.29337210
  C      4.81562394      4.81494583      2.50843879
  C      5.53358030      5.19856574      1.42087838
  C      7.83325701      4.76657953      0.57566674
  C      7.93381690      3.46941221     -0.22187518
  C      5.24450168      3.38797889      4.49413729
  H      7.67498174      3.45526527      3.08097918
  H      3.78834256      4.96468338      2.78628263
  H      5.27958158      5.77764671      0.54951646
  H      7.57962451      5.59448588     -0.09043072
  H      8.77795335      4.97637995      1.08708499
  H      8.86052783      3.44980388     -0.78777829
  H      7.09841225      3.39970043     -0.91170012
  H      7.90173921      2.61349474      0.44789974
  H      4.16988842      3.51121907      4.61884319
  H      5.76653803      3.79643849      5.36055312
  H      5.49409099      2.33047715      4.39044981
  N      3.43386130      2.42544600      1.05786929
  C      2.61907967      3.45066950      0.82709847
  N      3.02797360      4.08867502     -0.26597009
  C      4.12687436      3.44545392     -0.74897607
  C      4.38037267      2.39815909      0.08294996
  C      3.32314391      1.49895356      2.15449920
  C      2.50991224      0.27439600      1.74861601
  C      2.46158448      5.27882297     -0.83030413
  H      1.84475158      3.76704949      1.50558328
  H      4.65274590      3.82170587     -1.60228701
  H      5.17788488      1.68295847      0.10493663
  H      4.33959333      1.20485131      2.43343202
  H      2.83839951      2.02467627      2.97930757
  H      2.45347651     -0.41495531      2.58561695
  H      2.98211047     -0.23618758      0.91194599
  H      1.49901231      0.56086513      1.46419695
  H      1.80033814      5.03158253     -1.66236233
  H      3.28607318      5.89926538     -1.20030672
  H      1.90416466      5.81414857     -0.06664080
 Cl      1.77073162      4.34247716      3.72925499
 Cl      6.68308146      1.23629894      2.24819080
 Cl    -21.61996411    -19.35407299     23.71363622
 Cl      5.44415789      6.40598842     -1.63987435
 Cl      4.22738738     10.65875430      3.99689542

