#B3LYP/6-31+G(d) OPT FREQ

62, Energy =    -96.25790752 au

0 1
  N      2.14665724      6.30557550      5.71229279
  C      3.32171302      5.78374155      5.36627891
  N      3.70013129      6.31528528      4.20745888
  C      2.73468503      7.19191626      3.80511634
  C      1.75849273      7.18664573      4.75297481
  C      1.38697446      6.02495810      6.90887357
  C      2.26344791      6.10100013      8.15100007
  C      4.92150745      6.04451994      3.50627151
  H      3.88786076      5.05550044      5.93825938
  H      2.81301261      7.73409841      2.88604792
  H      0.84443591      7.75262425      4.87161062
  H      0.57901357      6.76639164      6.94336523
  H      0.95264337      5.02440116      6.82305873
  H      1.65553445      5.91359939      9.03140048
  H      2.70436550      7.09112502      8.24016950
  H      3.05887455      5.36064048      8.11487605
  H      5.57993432      5.46388954      4.14708400
  H      5.40441102      6.98357222      3.23580414
  H      4.73304414      5.47982390      2.58108801
  N      6.78013093      0.76365188      7.88793466
  C      5.83635736      0.26044245      7.09202278
  N      4.69205324      0.22609637      7.75760770
  C      4.89330919      0.72627192      9.00316461
  C      6.20599501      1.06594669      9.08643871
  C      8.17533477      0.90905912      7.55456445
  C      8.36576440      1.80984907      6.34256752
  C      3.45444739     -0.34843168      7.32559219
  H      5.99555236     -0.03613468      6.06227071
  H      4.11218647      0.75459554      9.73308636
  H      6.75999329      1.50103104      9.89223059
  H      8.68067080      1.32328528      8.43200463
  H      8.58825591     -0.08344002      7.34449449
  H      9.42564386      1.97723122      6.16661000
  H      7.87561712      2.76444801      6.51116848
  H      7.92822574      1.34060578      5.46475755
  H      2.69483011      0.42687175      7.22540259
  H      3.15106702     -1.06078192      8.10576622
  H      3.60100181     -0.85665494      6.37661415
  N      4.91729072      2.43429718      3.55470551
  C      5.28417007      2.13036175      2.31824146
  N      6.56449611      2.43124665      2.15626783
  C      7.02647966      2.95495441      3.32288159
  C      5.99306304      2.94860255      4.20472337
  C      3.62296373      2.22333515      4.15379304
  C      3.14036950      0.80114555      3.89493392
  C      7.27428054      2.31558917      0.91860574
  H      4.66021012      1.70098554      1.56331322
  H      8.04268792      3.26767346      3.44452490
  H      5.92039488      3.23692320      5.23840558
  H      3.74043982      2.41156646      5.22399705
  H      2.91918849      2.95314290      3.73820810
  H      2.31602951      0.55482217      4.55764103
  H      3.96367902      0.11106068      4.06635433
  H      2.80335811      0.68633753      2.86732300
  H      7.28008563      1.27696935      0.58642043
  H      8.29704948      2.66080089      1.05221005
  H      6.76234854      2.93827276      0.17975198
 Cl      3.69628865     -1.89736731     10.17104114
 Cl      4.64129564      4.35343217      0.66311968
 Cl      4.94118390      3.65752197      7.23910011
 Cl     -0.76893163      8.57804073      6.15909814
 Cl      6.62658872     -0.26538571      3.92751748

