#B3LYP/6-31+G(d) OPT FREQ

62, Energy =    -96.28566361 au

0 1
  N      3.81192266      5.00371254      3.41206863
  C      4.48133052      5.09801007      4.55940793
  N      5.01971530      3.92150568      4.84736560
  C      4.69219888      3.04883858      3.85582600
  C      3.93032552      3.72918702      2.95462900
  C      3.09776623      6.07648319      2.76336793
  C      4.03167518      7.22923079      2.42502297
  C      5.83204070      3.65446486      5.99737288
  H      4.65692999      5.98524387      5.14586660
  H      5.03448450      2.03463970      3.85981885
  H      3.53325899      3.43382195      2.00586266
  H      2.68932396      5.67530730      1.83538526
  H      2.28545390      6.40579901      3.42100449
  H      3.45737222      8.06541442      2.03565917
  H      4.71488952      6.88153931      1.65597886
  H      4.59057787      7.55511328      3.29709528
  H      6.21512349      4.60793162      6.36068116
  H      6.65912260      2.99577656      5.71849521
  H      5.24017342      3.17323540      6.77790103
  N      9.65997934      4.39743365      6.26196870
  C     10.41476296      3.57809552      5.53373080
  N     10.67774609      4.14926189      4.36487146
  C     10.05724475      5.36009311      4.33234720
  C      9.41259932      5.51563636      5.51963616
  C      9.11439137      4.05088954      7.55385432
  C      8.61722990      5.26163690      8.32390734
  C     11.44632479      3.59306689      3.28903278
  H     10.76974253      2.62018328      5.85312891
  H     10.11082157      5.97184095      3.45052697
  H      8.76662692      6.30169066      5.85537694
  H      8.30252458      3.33648333      7.38421955
  H      9.90011572      3.53634234      8.11809502
  H      8.22665456      4.93980578      9.28553025
  H      7.82140190      5.77173436      7.78688980
  H      9.42795537      5.96668347      8.49622909
  H     12.51388338      3.64518424      3.51161953
  H     11.23443248      4.18167654      2.39037243
  H     11.15965975      2.55461099      3.13466030
  N      7.55630801      4.00811515      1.45899120
  C      7.54994176      5.22230619      0.93271677
  N      7.39550249      6.11747128      1.89797289
  C      7.30437314      5.45299657      3.08452508
  C      7.40905303      4.12751267      2.80870568
  C      7.64564417      2.76474353      0.74206688
  C      8.93305898      2.03368719      1.09832607
  C      7.50924742      7.53751917      1.74115107
  H      7.64973256      5.44835749     -0.10855626
  H      7.15925844      5.96800323      4.01434770
  H      7.45719495      3.27803274      3.46087808
  H      6.76957527      2.16131747      0.99792124
  H      7.60672071      2.99285739     -0.32447663
  H      9.01867153      1.11976424      0.51615121
  H      8.93793997      1.77931978      2.15518902
  H      9.78309126      2.67580860      0.88297022
  H      8.54596371      7.77124006      1.48394220
  H      7.24650992      8.02084976      2.67920762
  H      6.85430386      7.88575140      0.94302885
 Cl      6.41332566      7.04568483      6.15449556
 Cl    -44.95279685     36.41128171     38.98570217
 Cl      8.41733626      1.70235861      5.04946972
 Cl     10.39836307      5.82792721      1.05133938
 Cl      4.79884422      4.77570812      0.21635796

