#B3LYP/6-31+G(d) OPT FREQ

62, Energy =    -96.26061175 au

0 1
  N      7.16917142      2.77838791      7.24622259
  C      6.77881658      3.28289491      6.07793506
  N      5.78304453      2.54659587      5.60311787
  C      5.52264094      1.55026797      6.49602087
  C      6.39385479      1.69688768      7.53215711
  C      8.20481958      3.29188906      8.10728705
  C      7.70742343      4.51379084      8.87511823
  C      5.12176103      2.74865789      4.34726830
  H      7.17075399      4.15522855      5.57444658
  H      4.72412353      0.85590996      6.33887656
  H      6.59145098      1.11277997      8.41665007
  H      8.46896564      2.48104178      8.80224079
  H      9.06886027      3.55785098      7.49438593
  H      8.49656958      4.87995621      9.52440933
  H      6.85293813      4.24417952      9.49198544
  H      7.41551185      5.31018173      8.18938553
  H      4.04044834      2.79718984      4.51422243
  H      5.33444149      1.91296392      3.67908523
  H      5.49140572      3.67190040      3.90518127
  N      2.07677622      1.36406351      2.23643133
  C      1.34507321      0.78234914      3.18338317
  N      2.06045633     -0.17844662      3.75837033
  C      3.26242307     -0.25368365      3.12008430
  C      3.27487902      0.71247616      2.16811255
  C      1.66619596      2.50013886      1.45725984
  C      2.08047379      3.79635752      2.15008197
  C      1.59106051     -0.98854350      4.84015541
  H      0.39145514      1.12305757      3.52500899
  H      4.00600307     -0.97566983      3.39040620
  H      4.02675306      0.98274452      1.45534108
  H      2.11601584      2.42222876      0.46349329
  H      0.58040728      2.44385945      1.35381655
  H      1.58339327      4.64659400      1.69169839
  H      3.15653221      3.93962821      2.08865264
  H      1.80656636      3.74087733      3.20193859
  H      1.40772820     -0.34736251      5.70497014
  H      2.33765685     -1.74015525      5.08871147
  H      0.66011658     -1.47121054      4.53850801
  N      4.01440771      7.40976676      5.43701795
  C      5.18860293      7.99723759      5.23950282
  N      5.05794544      9.30421003      5.44575474
  C      3.76826044      9.56298807      5.79342326
  C      3.11095719      8.37145114      5.78833462
  C      3.76320586      5.99283790      5.31302400
  C      3.58967150      5.32752620      6.67209454
  C      6.07624018     10.30949953      5.32689622
  H      6.07220767      7.45926598      4.91673153
  H      3.45894562     10.58091322      5.98542410
  H      2.08726809      8.13939500      5.99658167
  H      2.86022048      5.84601231      4.71583163
  H      4.61940542      5.56687190      4.78706872
  H      3.22095346      4.31657674      6.51824994
  H      2.86169688      5.86593421      7.27613163
  H      4.53444369      5.28906192      7.20904668
  H      5.59172363     11.28696084      5.45005841
  H      6.55527122     10.24427379      4.35090156
  H      6.83192856     10.17675516      6.10156671
 Cl      1.99955768      2.45909714      5.43284315
 Cl      8.32709368      0.50688671      9.87197461
 Cl     -0.10546958     -0.72535510      1.69058685
 Cl      3.96588843     12.78022177      5.92104495
 Cl      7.06147650      5.73630406      3.98406624

