#B3LYP/6-31+G(d) OPT FREQ

62, Energy =    -96.27012895 au

0 1
  N      3.37851703      6.86448196      6.62727534
  C      4.19935884      7.34637901      5.69446048
  N      3.89251235      6.79454821      4.52173829
  C      2.78854696      6.01279717      4.69331835
  C      2.46751942      6.05322804      6.01085778
  C      3.35216739      7.21535777      8.02480231
  C      2.30929710      8.30034444      8.27377994
  C      4.53456063      7.05719584      3.26792292
  H      5.05593446      7.96007509      5.87876501
  H      2.35738876      5.48253333      3.86833358
  H      1.70085703      5.56015790      6.57117406
  H      3.12992381      6.30594069      8.59479382
  H      4.34298957      7.58372392      8.29789028
  H      2.39922830      8.68113380      9.28753229
  H      1.30715438      7.90282596      8.13454971
  H      2.46531364      9.11074583      7.56409340
  H      4.18444848      6.32333219      2.54261135
  H      5.61561646      6.97641250      3.37922346
  H      4.28023973      8.06724727      2.94094862
  N      5.57182152      4.25253916      6.61097735
  C      4.40386290      3.62297264      6.54489639
  N      4.16350887      3.30505342      5.27780915
  C      5.20999146      3.73796195      4.51908194
  C      6.09976554      4.33522374      5.35672768
  C      6.17233501      4.75194366      7.82315698
  C      7.48414729      4.03220494      8.11101758
  C      3.00648535      2.63267000      4.76226788
  H      3.74493818      3.48804823      7.39848783
  H      5.18705189      3.64400515      3.45247512
  H      7.07115735      4.77069766      5.17471827
  H      6.37021183      5.81937404      7.69631422
  H      5.44354676      4.60807889      8.62501823
  H      7.89770459      4.38884951      9.05013096
  H      8.19890956      4.23608458      7.31532111
  H      7.32354964      2.95884596      8.18397238
  H      2.85303768      2.96568096      3.73084811
  H      2.14038741      2.87269380      5.37438371
  H      3.16136968      1.55196682      4.76627386
  N      8.63063741      3.03039636      2.49013967
  C      7.88426382      2.10853025      1.88911749
  N      6.82216671      2.69557053      1.34804016
  C      6.91205117      4.03684546      1.58114125
  C      8.04643622      4.24613401      2.29836250
  C      9.89667780      2.81927105      3.14308286
  C     11.02909415      2.97481849      2.13338628
  C      5.79550229      2.05674845      0.57910303
  H      8.08531178      1.05863000      1.87555611
  H      6.15222090      4.71206833      1.24513742
  H      8.46119959      5.13162877      2.73498184
  H      9.97187605      3.55289119      3.95293288
  H      9.90148043      1.80980868      3.55986916
  H     11.97214208      2.66365727      2.57434750
  H     11.11298636      4.01169971      1.81965741
  H     10.81698028      2.36226183      1.25858140
  H      5.65967859      1.03449229      0.92714164
  H      6.09153546      2.02831461     -0.47084132
  H      4.86616577      2.61783266      0.69778122
 Cl      3.31321905      4.07483090      1.76614064
 Cl      9.22457909      5.33336672      5.30531841
 Cl      3.27707562      9.73829702      5.24640709
 Cl      9.15788972      1.30350466     -0.39262577
 Cl      2.82268916      4.01270472      9.23446626

