#B3LYP/6-31+G(d) OPT FREQ

154, Energy =      0.00000000 au

0 1
  C     -5.07174236     -1.51449171     -4.43201521
  C     -6.12763401     -1.57778601     -5.34171719
  C     -6.72785408     -0.40361836     -5.79651247
  C     -6.27231485      0.83388631     -5.34171719
  C     -5.21642926      0.89728157     -4.43201521
  C     -4.61625823     -0.27693968     -3.97726479
  H     -4.59866842     -2.44016032     -4.07357209
  H     -6.48650109     -2.55352133     -5.70004185
  H     -6.74526067      1.75971958     -5.70004185
  H     -4.85741529      1.87286873     -4.07357209
  H     -3.78405301     -0.22701410     -3.26027748
  C     -7.89336098     -0.47353935     -6.80065620
  C     -8.80245637     -0.52807773     -7.58388833
  H     -9.61225664     -0.57665919     -8.28157262
  C     -3.17027625     -6.12991504     -0.17998283
  C     -4.01795992     -7.23740725     -0.21692120
  C     -5.40101873     -7.05690837     -0.23538813
  C     -5.93653784     -5.76902219     -0.21692120
  C     -5.08893449     -4.66146852     -0.17998283
  C     -3.70587732     -4.84205275     -0.16151772
  H     -2.08002458     -6.27233090     -0.16542827
  H     -3.59545480     -8.25255221     -0.23147094
  H     -7.02680355     -5.62636687     -0.23147094
  H     -5.51120478     -3.64627456     -0.16542827
  H     -3.03780178     -3.96915161     -0.13240451
  C     -6.33666132     -8.27941006     -0.27616130
  C     -7.06646255     -9.23296141     -0.30796438
  H     -7.71655190    -10.08236195     -0.33629379
  C      0.02896005      5.34549444     -4.36852043
  C     -0.20700743      6.38797466     -5.26519505
  C     -1.50316317      6.64252468     -5.71347745
  C     -2.56342967      5.85471100     -5.26519505
  C     -2.32756084      4.81220846     -4.36852043
  C     -1.03136741      4.55772101     -3.92028225
  H      1.05076665      5.14493003     -4.01521038
  H      0.62906858      7.00883937     -5.61838832
  H     -3.58535838      6.05510506     -5.61838832
  H     -3.16345329      4.19124257     -4.01521038
  H     -0.84542704      3.73607490     -3.21356253
  C     -1.76357343      7.79324350     -6.70324136
  C     -1.96669344      8.69080419     -7.47525724
  H     -2.14762784      9.49032962     -8.16295036
  C     -5.06868789     -1.70597877      4.36544970
  C     -6.13304973     -1.80929336      5.26151388
  C     -6.78192889     -0.65862191      5.70949110
  C     -6.36658146      0.59540181      5.26151388
  C     -5.30222940      0.69881706      4.36544970
  C     -4.65339784     -0.45190982      3.91751668
  H     -4.55725417     -2.61312831      4.01238018
  H     -6.46022360     -2.79804162      5.61446671
  H     -6.87789172      1.50272076      5.61446671
  H     -4.97490178      1.68742282      4.01238018
  H     -3.81451825     -0.37044211      3.21127808
  C     -7.95678327     -0.77271778      6.69858120
  C     -8.87316970     -0.86171256      7.47007150
  H     -9.68946464     -0.94098696      8.15729645
  C     -2.45638632      6.14530021      1.96481573
  C     -3.17021245      7.27413705      2.36811548
  C     -4.54808086      7.19290613      2.56974066
  C     -5.21225331      5.98294960      2.36811548
  C     -4.49851267      4.85405871      1.96481573
  C     -3.12063671      4.93537233      1.76321044
  H     -1.37021220      6.20945989      1.80590652
  H     -2.64630649      8.22782917      2.52697217
  H     -6.29846691      5.91855917      2.52697217
  H     -5.02219324      3.90030333      1.80590652
  H     -2.55806386      4.04565121      1.44534722
  C     -5.33596649      8.43896427      3.01490943
  C     -5.95051729      9.41088965      3.36214108
  H     -6.49794433     10.27665734      3.67144666
  C      3.65742930     -0.79648612     -5.80074412
  C      4.37992106     -0.71351172     -6.99137083
  C      4.60338202      0.52807056     -7.58661126
  C      4.10443395      1.68673884     -6.99137083
  C      3.38193066      1.60386493     -5.80074412
  C      3.15851109      0.36223650     -5.20556240
  H      3.48133988     -1.77528579     -5.33161032
  H      4.77311610     -1.62712988     -7.46034958
  H      4.28041141      2.66568339     -7.46034958
  H      2.98865940      2.51731662     -5.33161032
  H      2.58907015      0.29687930     -4.26716251
  C      5.40088645      0.61960358     -8.90084423
  C      6.02293992      0.69099934     -9.92594597
  H      6.57705015      0.75459696    -10.83908188
  C      5.21100057      4.51135438      0.38984453
  C      6.08794154      5.59349929      0.46989436
  C      5.58788043      6.89507903      0.50991438
  C      4.21094647      7.11467825      0.46989436
  C      3.33392692      6.03259702      0.38984453
  C      3.83407057      4.73103880      0.34982846
  H      5.60532048      3.48536230      0.35830308
  H      7.17336903      5.42002159      0.50142538
  H      3.81639061      8.14062806      0.50142538
  H      2.24850695      6.20583514      0.35830308
  H      3.14287308      3.87816462      0.28673667
  C      6.55590539      8.08953289      0.59827469
  C      7.31096488      9.02120692      0.66719572
  H      7.98355367      9.85111969      0.72858892
  C      6.83648799     -0.33061388      0.90110834
  C      8.18423339     -0.64018150      1.08609821
  C      8.58764428     -1.97227721      1.17858181
  C      7.64346353     -2.99489250      1.08609821
  C      6.29569548     -2.68542345      0.90110834
  C      5.89236237     -1.35329372      0.80863386
  H      6.51860092      0.71951832      0.82821816
  H      8.92829905      0.16622930      1.15896430
  H      7.96114000     -4.04513711      1.15896430
  H      5.55148938     -3.49164123      0.82821816
  H      4.83011947     -1.10934491      0.66283294
  C     10.07531991     -2.31392854      1.38277661
  C     11.23570692     -2.58041659      1.54204855
  H     12.26935169     -2.81779771      1.68392416
  C      0.82832004      2.79819598      6.25643593
  C      1.18567978      3.21002377      7.54063332
  C      2.27678245      2.62429538      8.18265337
  C      3.01060735      1.62675650      7.54063332
  C      2.65332401      1.21486243      6.25643593
  C      1.56220076      1.80064427      5.61447921
  H     -0.03181880      3.26000242      5.75043316
  H      0.60696156      3.99644427      8.04646885
  H      3.87081802      1.16479374      8.04646885
  H      3.23187734      0.42849098      5.75043316
  H      1.28057555      1.47603350      4.60233100
  C      2.67119974      3.07891412      9.60017117
  C      2.97884523      3.43351674     10.70583507
  H      3.25288841      3.74938821     11.69073382
  C      2.96073098     -5.22777447     -3.40048786
  C      3.33248468     -6.37715130     -4.09848724
  C      2.36899916     -7.32356414     -4.44744418
  C      1.03375737     -7.12075649     -4.09848724
  C      0.66190744     -5.97141079     -3.40048786
  C      1.62545940     -5.02503906     -3.05156534
  H      3.72034013     -4.48178747     -3.12546035
  H      4.38519112     -6.53671497     -4.37342385
  H      0.27395071     -7.86664204     -4.37342385
  H     -0.39069834     -5.81164921     -3.12546035
  H      1.33242147     -4.11916279     -2.50143276
  C      2.77940001     -8.59224765     -5.21790716
  C      3.09951268     -9.58182081     -5.81886829
  H      3.38466132    -10.46330872     -6.35418998
  C      2.53276443     -4.61055370      4.47066768
  C      2.81365297     -5.62321790      5.38831897
  C      1.79006574     -6.45241771      5.84708841
  C      0.48557565     -6.26909087      5.38831897
  C      0.20458964     -5.25645371      4.47066768
  C      1.22823946     -4.42729032      4.01194349
  H      3.33974538     -3.95695763      4.10909235
  H      3.84213959     -5.76746253      5.74977479
  H     -0.32159288     -6.92259695      5.74977479
  H     -0.82378258     -5.11203531      4.10909235
  H      1.00681698     -3.62916334      3.28869088
  C      2.10016884     -7.57019787      6.86000672
  C      2.34204926     -8.44206641      7.65008301
  H      2.55751051     -9.21870589      8.35386392

