#B3LYP/6-31+G(d) OPT FREQ

3055, Energy =      0.00000000 au

0 1
 Au     19.65492126     20.04762035     19.92131045
 Au     18.07035045     20.29240864     22.19688588
 Au     18.50260500     17.70754024     20.89353564
 Au     16.90856564     19.76967716     19.56171637
 Au     20.70978600     19.03060035     22.28815650
 Au     18.13057846     22.36721063     20.13322897
 Au     20.47986194     21.91043483     21.81826184
 Au     18.82997869     18.18480303     18.02436265
 Au     21.17926207     17.72802844     19.70939532
 Au     18.60005330     21.06464208     17.55446658
 Au     22.40127649     20.32556160     20.28090907
 Au     20.80723780     22.38770224     18.94908986
 Au     21.23949207     19.80283205     17.64573502
 Au     16.46388067     20.54057994     24.50391006
 Au     17.33436358     15.33511991     21.87919711
 Au     14.12425503     19.48789276     19.19715265
 Au     21.77922911     17.99952499     24.68771267
 Au     16.58516904     24.71885795     20.34807625
 Au     21.31620341     23.79899365     23.74142935
 Au     17.99363530     16.29624134     16.10119880
 Au     17.53060692     22.09571918     15.15491263
 Au     25.18558669     20.60734405     20.64547740
 Au     21.97547950     24.76012437     17.96343307
 Au     22.84596186     19.55466075     15.33871083
 Au     16.79675670     17.85947996     23.31302604
 Au     15.13208169     20.01299689     21.92219050
 Au     19.10174542     19.24116938     24.76944730
 Au     16.40824466     22.72563295     22.51902813
 Au     18.86163178     22.24861732     24.27872961
 Au     15.58349215     17.31358577     20.56108977
 Au     19.55314804     16.54175979     23.40834094
 Au     17.59004476     15.65848444     18.95561451
 Au     20.04342703     15.18146975     20.71531251
 Au     15.19497852     22.17973761     19.76708872
 Au     15.92537195     17.81200282     17.56477192
 Au     15.68525873     20.81944914     17.07405609
 Au     21.61802619     20.93089510     24.37404471
 Au     22.34842200     16.56315984     22.17172961
 Au     23.62458272     19.27579481     22.76856718
 Au     18.92452748     24.41535641     22.12362836
 Au     16.96141796     23.53208212     17.67089633
 Au     19.26640884     24.91377134     19.12731411
 Au     23.38446697     22.28323934     22.27785329
 Au     21.71979449     24.43675599     20.88701454
 Au     20.38531242     15.67988301     17.71899419
 Au     17.69181005     19.16434758     15.46857856
 Au     20.44821140     17.84662575     15.56389020
 Au     24.11486412     17.91550382     20.07553915
 Au     22.90159928     17.36960997     17.32359223
 Au     19.75669046     23.55348355     16.43428251
 Au     20.20809603     20.85407547     15.07317416
 Au     23.72634985     22.78165689     19.28153618
 Au     24.17776166     20.08224759     17.92043232
 Au     22.51308532     22.23576378     16.52959639
 Au     22.72466947     15.37637947     19.49455150
  O     17.86170543     23.58513976      4.35945191
  H     17.88737844     23.30448534      5.27715230
  H     18.73670266     23.50016097      3.97375973
  O      1.92322118     25.66779762     30.28766348
  H      2.57429732     26.36734982     30.19641338
  H      2.30508315     24.93670962     30.77887808
  O     35.23762772      5.66929933     28.41857437
  H     35.85702990      4.98411070     28.68021818
  H     34.49310430      5.67664331     29.02457019
  O     39.78605693     36.37141575     31.76280460
  H     40.16726936     36.97278867     31.11888869
  H     39.51812588     35.56041482     31.32452337
  O     12.21036471     23.16397169      1.03746781
  H     12.15559366     23.83088999      1.72581374
  H     12.59464455     23.55010790      0.24700729
  O     32.12393395     37.04463627     31.01067001
  H     32.92049303     37.42673574     31.38629431
  H     32.35586338     36.49642799     30.25749245
  O     16.31604756     25.21696838      0.99877589
  H     16.77185995     25.73256113      0.32944848
  H     16.80861888     24.41171622      1.17353988
  O     25.55834168      9.57450999     -0.29070567
  H     26.13701197      9.01895478     -0.81805669
  H     25.01262505      9.02309190      0.27474234
  O     22.47021830     12.28633906     26.13473148
  H     23.12037848     12.79000271     26.62992303
  H     21.86280461     11.86051597     26.74409451
  O     -0.11142189      2.65269543     39.81876181
  H     -0.63986188      3.43846640     39.97660722
  H      0.78840814      2.80667559     40.11573997
  O      1.90568013     22.82301048     14.60174425
  H      2.44956841     22.25581780     15.15317692
  H      1.45927105     23.47145745     15.15113980
  O     11.80478580     13.89077567     28.38464014
  H     11.36799287     13.32275676     27.74576108
  H     11.32326786     14.71785304     28.46002911
  O     29.07153105     21.16690759      8.76612761
  H     29.35753644     22.01199910      8.41169670
  H     29.38924490     20.45853074      8.20145057
  O      5.86710495      9.27558194     13.61110718
  H      6.54624923      9.23627555     14.28846828
  H      5.01893754      9.46617561     14.01839836
  O     24.04458522      6.05170697      1.25539139
  H     23.91418790      6.65391972      1.99155464
  H     24.12581510      5.15414718      1.58613015
  O     19.01885176     26.37036266     26.79570827
  H     19.12593348     25.71549211     27.48945035
  H     19.20983735     27.24323068     27.14674379
  O     22.76942739      8.36866159      0.24155546
  H     23.47316872      7.71907459      0.30777390
  H     22.10150590      8.18643844      0.90659350
  O      3.78845365     12.90206039     15.98232041
  H      2.98218977     12.98711716     15.46821546
  H      4.36955577     13.64207834     15.79181122
  O     37.85067145     33.05772992      3.83867998
  H     37.69552426     33.12495181      2.89368762
  H     38.76866860     32.82575183      3.99700687
  O      4.07714142      3.99304937     31.62942104
  H      4.44083523      3.13811101     31.87109690
  H      3.46119735      3.88496059     30.90104633
  O     37.28113188     32.85179468      5.81136237
  H     37.16284057     31.90149726      5.74396823
  H     38.01245312     33.04250748      6.40330651
  O      2.39894641     38.42843765     22.00404532
  H      1.91982199     37.75837205     22.49704824
  H      1.79069394     38.90074627     21.43084945
  O     32.12080159      0.77050585      2.75495788
  H     32.70316421      0.74566398      3.51774007
  H     31.20700544      0.76611819      3.04916419
  O      4.68235971     36.36090610      8.33409775
  H      3.93588345     36.23680822      8.92483704
  H      5.49627089     36.36714293      8.84312594
  O     13.16879273     20.90507782      8.52943905
  H     12.37873634     21.25983743      8.11524521
  H     13.85440134     20.79151278      7.86713714
  O     32.21059015     12.16234713     28.74409876
  H     32.08673598     12.36478325     27.81389460
  H     33.14293515     12.01424084     28.91844705
  O     20.66960720     29.70956169     21.43920765
  H     21.54334498     29.63911384     21.04777517
  H     20.02561967     29.29155439     20.86288312
  O     31.13927242     12.21875575     32.50586731
  H     31.04677604     12.92044556     31.85727203
  H     31.05012554     11.36722214     32.07165153
  O     10.10833102     30.88542075     19.29733914
  H     10.77438986     30.60372065     19.92869537
  H      9.62879308     31.63780990     19.65167507
  O     31.17555338      4.12906314     17.88098281
  H     30.24442235      4.27023974     17.69479959
  H     31.69572861      4.36203428     17.10849191
  O      2.68116856      2.98851766     37.73093612
  H      1.86308138      2.99270855     38.23324658
  H      3.42110551      3.14471290     38.32228742
  O     21.08616014     33.07658300      1.95879100
  H     20.33792569     32.82167917      1.41402568
  H     21.82326645     33.32356884      1.39552171
  O     13.33497666      4.82207432      9.91358793
  H     12.78528759      5.41075945     10.43597835
  H     13.82876885      4.24208974     10.49787139
  O     25.18054788     35.96892805     21.62269157
  H     24.77053039     36.31628834     22.41819549
  H     26.06066249     35.64662116     21.83033681
  O     38.04235202     35.33196290     22.94316001
  H     38.18531741     34.66569186     23.61935806
  H     37.99343623     36.19884240     23.35270509
  O     22.05543922     21.18105990      3.03621963
  H     21.30220011     20.59514106      2.93167319
  H     22.72984186     20.95410233      2.39180413
  O     33.88770023     29.66221897     18.57522769
  H     34.78658928     29.72594963     18.90619128
  H     33.45063468     30.51177591     18.66917829
  O      7.24338904     20.91453068     23.10890443
  H      7.84864277     20.40449482     23.65216436
  H      6.65050999     21.41567662     23.67365852
  O     22.35980302     27.13599632      2.29684660
  H     21.77487254     27.89384570      2.22528781
  H     22.38132469     26.83265220      3.20740640
  O      3.95083160     37.19254124     22.30058635
  H      4.15001720     36.37415908     22.76121173
  H      4.24633714     37.12757528     21.38951231
  O      1.63670467     11.83812855     23.68391309
  H      1.96959705     12.07084826     22.81407161
  H      2.27532939     11.27900412     24.13239759
  O     31.65452253     30.36724563     30.87376007
  H     30.87596353     29.97447476     31.27522853
  H     31.95662904     31.10222351     31.41240576
  O     36.24262029     11.04221388      8.61094455
  H     35.62345767     11.65404532      9.01579013
  H     36.67925612     10.52887510      9.29463487
  O      0.55051950      9.62345790      5.56677868
  H     -0.27604294      9.73154930      6.04292025
  H      0.59645318     10.26560029      4.85463878
  O     31.63602253     29.03571965      1.01651283
  H     31.63078445     29.57019274      0.21907250
  H     31.87296963     28.13214607      0.79512884
  O     32.10713421     25.86492593     31.93165578
  H     31.48371593     26.33881538     32.48697411
  H     32.73154595     25.38940152     32.48445459
  O      4.76849221      4.42271843     25.83857519
  H      5.23035816      5.02269649     26.42874989
  H      4.61307919      3.58833322     26.28718204
  O     16.39088909     35.64870299     18.99927946
  H     15.61936120     36.20696807     18.87809849
  H     16.11308233     34.77652151     19.28862850
  O     10.71887118     10.02173433     29.79247580
  H     10.49115597     10.59276780     30.52981328
  H     11.18883867     10.52962101     29.12705738
  O     12.32861374     39.55091918      0.06890658
  H     12.21050699     40.10622533      0.84304215
  H     12.24716200     38.62819259      0.32098047
  O     13.10998144     36.91064091     31.19486771
  H     12.57777309     36.34433325     30.63126332
  H     13.67657677     37.46268675     30.65097882
  O      9.23434338     14.12282179     14.82994130
  H      9.22779219     13.24203853     15.21175006
  H     10.03375893     14.24155801     14.31183273
  O      9.76309620      2.85074483     37.31999471
  H      9.26271820      2.15784828     37.75716313
  H      9.88800442      3.58595058     37.92453623
  O     19.57648451     21.57914318     32.07547875
  H     18.86103514     21.47893224     32.70768914
  H     20.39169180     21.77612049     32.54263721
  O     19.38334033     11.62689293      0.90574327
  H     20.29916576     11.38101507      1.05543588
  H     19.05867422     12.12688502      1.65820578
  O      4.16574325     25.52584524     11.57717586
  H      4.60483393     26.36668515     11.72478217
  H      3.34532821     25.50099796     12.07507321
  O     16.91896777      6.82101460     35.39678836
  H     16.80931047      7.51798813     36.04779003
  H     16.99760955      5.97486375     35.84338013
  O     28.32856775     11.32553731     20.37478364
  H     27.72010578     11.47868677     21.10136418
  H     29.17347714     11.02950972     20.72133204
  O     11.69726310     10.10391660     34.50969644
  H     11.05384818      9.88401523     35.18738415
  H     12.52872888     10.34633002     34.92382250
  O      2.43164657     14.64607912     16.59210991
  H      1.96040072     14.15333698     17.26792981
  H      2.19910828     15.57553482     16.65242613
  O     13.45189194     29.92974832      7.31262079
  H     13.39229040     29.03584420      7.65756006
  H     14.37294955     30.15402270      7.16111543
  O     31.30670443      8.63202563      0.30510145
  H     31.16533592      7.98716065      1.00206924
  H     31.15813686      9.51523096      0.65075447
  O     37.58856197      5.83114241     25.53808560
  H     38.42360598      5.46796926     25.23410078
  H     37.18441258      5.22536817     26.16362605
  O      8.54776468     27.38803766     14.49903737
  H      8.47983628     28.34559836     14.50698890
  H      7.82352040     27.01963477     13.98781379
  O     33.46864265     26.43632180     -0.06163952
  H     32.70032589     25.95774789      0.25813597
  H     33.18256576     27.20220626     -0.56481049
  O     14.13000442      5.74329590     24.52538412
  H     14.61978490      5.73797931     23.69974085
  H     13.23506990      6.05152719     24.36511659
  O      5.62485434     37.18646561     12.20432076
  H      5.84694544     36.30544222     12.51427773
  H      6.43094788     37.67232835     12.01524243
  O     19.87918683     40.03957749      8.62317286
  H     20.40196441     39.26808395      8.85361009
  H     20.18164660     40.39237526      7.78314201
  O     35.99069270      2.62492913      3.59262201
  H     35.84209503      2.88715206      4.50408121
  H     35.15149759      2.40495647      3.18157020
  O     38.66875264     12.49947936     22.00858746
  H     39.13520235     12.23462277     21.21242438
  H     38.63390471     13.45768388     22.05580744
  O     20.98851678     17.47606523      7.13642499
  H     20.30398273     17.58373586      6.47203041
  H     21.46764648     16.66026986      6.97359794
  O     13.50019787     36.58692604     20.73830594
  H     12.56944125     36.35353035     20.76691663
  H     13.89039553     36.24969254     19.92860269
  O     25.72584390     39.18733408     35.72691827
  H     25.77986452     38.80381469     34.84851366
  H     25.96700282     38.52672438     36.38039910
  O     16.95490275     29.91586345     25.42605994
  H     17.83113392     29.69659664     25.10088152
  H     17.02576489     30.30446718     26.30102605
  O     10.20716875     26.83222832      2.25045379
  H      9.54115642     27.36348909      2.69293494
  H     10.85403307     27.40854321      1.83689883
  O     25.14680931      2.90249762      4.93642247
  H     24.53940744      3.64487180      4.89713447
  H     25.27013514      2.54236563      4.05511906
  O      5.23969541      2.20593664     24.58328195
  H      4.57228747      1.89525557     25.19943448
  H      5.94036212      2.64973005     25.06672126
  O     32.18476545     13.76810292     37.43974812
  H     31.73496080     14.55641493     37.12695434
  H     31.67057334     12.99179110     37.20619635
  O     20.63301316     22.00077821      0.38107557
  H     21.27295073     21.75570337     -0.29124744
  H     21.08153242     22.12299325      1.22101245
  O     23.29206286     33.71732112     24.28607456
  H     23.85902100     33.79945877     25.05640688
  H     22.39645819     33.51632387     24.56730826
  O     11.93998079      5.79717225     -0.18822726
  H     10.98496663      5.78529447     -0.28521632
  H     12.16701305      5.83181569      0.74389730
  O      8.49860580      8.29494949     20.40759917
  H      8.16296182      7.52163753     20.86687222
  H      8.92140716      8.88330830     21.03741893
  O     39.20545034     24.92213089      6.99698895
  H     39.66836746     24.88814242      7.83731777
  H     38.67037901     25.71822591      6.95785587
  O     26.14527736     32.52046996      4.24461713
  H     26.08788970     32.86817288      3.35163934
  H     26.52219689     31.63786865      4.22123783
  O     10.11830837     34.23557190     27.18720384
  H      9.41101376     34.00148411     26.58178064
  H     10.81988079     33.58296430     27.12804765
  O     29.12335195      4.75800286     35.44964698
  H     29.76951744      5.23499690     35.97552420
  H     28.71587610      5.35821573     34.82091179
  O     10.43996487     33.41857080     36.08471428
  H      9.70569013     33.45547636     35.46739865
  H     11.26583984     33.52540317     35.60709793
  O     35.03609648      6.99264424     31.20944633
  H     34.62099289      7.12859295     32.06431882
  H     35.14680366      7.83835011     30.76884956
  O      4.93211752     39.62619093     10.43260772
  H      5.25380094     38.98434742     11.06991196
  H      5.61784914     39.80657505      9.78543409
  O     32.46528399      6.66528633      3.30492443
  H     33.13251771      6.98233461      2.69183425
  H     32.02822848      5.89567574      2.93306151
  O      3.75608533     32.11951573     24.91075905
  H      2.95959721     31.94270501     24.40484933
  H      4.01169695     33.03765855     24.79553548
  O     20.56820704     26.59851451     22.32797205
  H     19.69752846     26.68571625     22.72283237
  H     21.23722430     26.85202951     22.96808615
  O     15.11675568      9.03449632     18.26518427
  H     15.14442885      9.92273987     17.90206225
  H     14.25425412      8.64709489     18.09901811
  O      6.52677836      1.04831036     29.01183518
  H      6.82009501      1.95615955     29.11848973
  H      6.01049701      0.78628997     29.77760204
  O     17.38110664     19.14080888     11.27841939
  H     17.01137532     19.25845265     12.15651887
  H     16.90376896     19.69128401     10.65333868
  O      8.48906334     24.88231365     38.32742119
  H      7.62153450     25.27527384     38.20669006
  H      8.71403360     24.35874543     37.55485099
  O     32.97953218      6.60474939      5.27031678
  H     32.98295569      7.54558337      5.07947730
  H     33.87118737      6.31693065      5.47938949
  O     12.41167913     27.72320636     12.28399779
  H     13.23809696     28.10141469     11.97481816
  H     11.82304240     27.58626836     11.53810585
  O     11.20247771      6.35281843     21.34978883
  H     11.55550818      6.16534996     20.47696293
  H     10.44156699      6.93267969     21.26994017
  O     23.92881916     11.99756943     38.08925829
  H     24.34328175     11.55845622     37.34293373
  H     23.30160725     12.65008988     37.76922348
  O     13.40670884      8.99815887     36.80239011
  H     12.57567928      8.80394605     36.36276382
  H     14.06932006      9.22953886     36.14740181
  O     39.21084657     23.95877631     16.19487480
  H     39.79014072     24.08754546     16.94948516
  H     38.46550009     24.56063928     16.25667768
  O     20.96199824     37.11349677     10.18916635
  H     21.03765429     37.17330822     11.14430967
  H     21.44516163     37.83709037      9.78349968
  O     36.15382078      7.87374498     15.83874807
  H     36.85078165      8.30824081     16.33579829
  H     35.52521573      7.47819419     16.44702042
  O     11.27618740     27.10018936     25.81017414
  H     12.01288076     27.11104018     26.42561313
  H     10.91047101     26.21379646     25.76370736
  O      1.34874455     28.26407237     28.23228308
  H      1.76801629     27.43211207     28.46391484
  H      1.22530118     28.79217707     29.02441133
  O      2.02642292     18.26877294     14.42995339
  H      1.28483760     18.03646402     14.99358784
  H      2.83604393     17.91160339     14.80216802
  O      1.75101732     34.27494694     24.34761532
  H      2.14863799     33.80491070     23.61102607
  H      1.64287276     33.67535580     25.08950158
  O     23.24731502      5.20504345     14.46036979
  H     22.96664381      4.36920097     14.08064485
  H     23.97720931      5.56070317     13.94815842
  O      8.92522186     19.49093238     11.39075829
  H      9.12275303     19.58948697     10.45648401
  H      8.84366490     18.55857616     11.60444111
  O     22.43266764     24.27193643      4.27461762
  H     23.06707759     24.99238796      4.28319818
  H     21.90805300     24.31645344      3.47187376
  O     23.95734289     10.31521225     39.20338927
  H     23.66094918      9.53198949     39.67276425
  H     24.83916600     10.16536627     38.85477174
  O     14.03991569      5.74171769     35.02458565
  H     14.03970648      4.98533789     34.43340923
  H     14.74550238      6.34306336     34.77532514
  O     19.34849613     35.29044239     12.21977837
  H     20.24247116     35.33807980     11.87316717
  H     19.28194792     35.83141667     13.01004299
  O     31.35793107     32.86374781      4.86352337
  H     30.50909546     33.30985238      4.90900754
  H     32.03874105     33.49457525      4.61825919
  O      9.27563262     27.33791082      0.02106631
  H      9.11767893     26.58097401      0.59001032
  H      9.41729770     28.11973690      0.55984177
  O     39.10837034      8.33779784     -0.12053866
  H     39.45372915      7.69091232      0.49903089
  H     38.23791795      8.62344400      0.16637405
  O     35.18858037     35.56293088     12.96290410
  H     34.83708003     35.24464344     13.79761400
  H     35.99076412     36.06518185     13.12366852
  O     11.83556338     31.13013540      1.48936633
  H     11.12310192     31.15589488      2.13227777
  H     12.17331424     30.23411232      1.42105082
  O     34.76906797     28.30149270     16.58954487
  H     35.23559341     28.99817846     17.05707345
  H     34.40172715     27.68076250     17.22307052
  O     29.23655919      1.45399824     38.51919984
  H     28.90044499      1.33433047     37.62796089
  H     29.09707388      2.36290407     38.79494256
  O     21.64049382      6.38077207     20.43885057
  H     22.31434824      5.69704093     20.43319690
  H     20.84080993      6.03921419     20.84559852
  O     34.74790143     14.80994839     16.38728355
  H     35.53116106     15.34125940     16.22661945
  H     34.66964758     14.63049210     17.32710895
  O     14.86647497     29.56465200     14.65283615
  H     14.62777976     30.20357411     13.97725999
  H     15.20833948     28.77025058     14.23611678
  O     25.23550096     28.07768552     18.55842282
  H     24.59179244     27.81957965     19.22221548
  H     26.05611429     28.32910793     18.98851646
  O     13.39822082     29.33134088      5.12746264
  H     14.12084805     29.84157469      4.75453993
  H     13.70870222     28.45023709      5.34849975
  O      6.11381100     11.69639582     13.05312435
  H      5.60503336     11.02369677     12.59462538
  H      6.60080369     12.22125831     12.41362652
  O     23.95679156      9.15560336     36.57354507
  H     23.67225860      9.99000791     36.19353186
  H     24.37828425      8.62201479     35.89588206
  O     10.99834195     15.73222779      1.08294939
  H     10.65836918     14.85677974      0.88392870
  H     10.29266313     16.37732356      0.99652692
  O     13.13795753     11.64176515     39.18730575
  H     12.95557234     12.27931942     39.88146726
  H     13.67496145     12.05396838     38.50663309
  O     21.17416733      6.42708211     35.42377727
  H     20.91362024      5.67915104     34.88126981
  H     22.10220251      6.62280380     35.27530592
  O     33.07807882     27.89564655     26.55373057
  H     32.55080796     27.24398480     27.02162202
  H     33.86262518     28.10161517     27.06721273
  O      9.88436542     28.32804157     29.89040505
  H      9.68051466     28.36919210     30.82760914
  H     10.82881918     28.44317060     29.76252854
  O      2.89030572      3.93000009      7.75132032
  H      3.24225164      3.24206608      8.32095254
  H      2.37258095      4.54591844      8.27496682
  O     25.40659477     31.59331191     20.50499402
  H     25.67579631     32.46919386     20.21870512
  H     25.23524484     31.04365635     19.73680266
  O     31.33186025      7.01692951     17.96221472
  H     31.33735964      6.32893012     17.29271744
  H     31.78794412      7.79280662     17.62814554
  O      2.62371406     13.80400592     30.10584002
  H      3.34642184     14.33552590     29.76410915
  H      2.80986497     12.87453560     29.95407455
  O     26.78871892     10.31094505     14.12907003
  H     27.09615070      9.98824405     14.97933456
  H     27.00074100      9.66940118     13.44711101
  O      6.25624130      8.06969623     16.95732416
  H      5.83540624      7.35316234     16.47661944
  H      6.53103293      7.75724544     17.82246234
  O     11.05970278     35.72871146      6.89959335
  H     10.40903898     35.98217065      6.24081033
  H     11.93380618     35.72725376      6.50267886
  O     12.39150538     31.92377152     18.23445843
  H     12.11770896     32.28885127     19.07906028
  H     13.09234204     32.46490300     17.86350735
  O     38.31423875     15.35134929      6.00734222
  H     39.06556447     14.79611734      5.78637358
  H     37.97152520     15.75944947      5.20884258
  O     12.67696933     11.72997470     31.40566329
  H     12.83710609     12.67623715     31.42897875
  H     13.20479956     11.29888314     32.08179590
  O     21.57376734     32.75453673     26.53478329
  H     21.30055261     32.01754726     27.08596405
  H     22.08789633     33.37320972     27.05872520
  O     27.32074206     22.34249056     10.76754648
  H     27.93726345     22.20548304     11.49054739
  H     26.42332915     22.34857355     11.10844685
  O     13.83154635     34.16781567     19.50427107
  H     14.02495165     34.62447031     18.68228510
  H     14.10086521     33.24923860     19.43158321
  O     19.71678481      1.60637489     36.65463382
  H     18.89999020      1.80307274     37.11912982
  H     19.79788918      2.18246522     35.89099646
  O      6.33514030      0.99554109     34.55022582
  H      7.07337969      0.86205229     33.95124056
  H      5.58868944      1.35341283     34.06407878
  O     32.87036142     38.89776368     37.21689436
  H     32.95331637     38.02667488     37.61176495
  H     31.97639928     39.22360050     37.34441715
  O     10.14099965     15.44369994     23.03186150
  H      9.64117531     15.20347588     22.24823657
  H     10.76745177     16.13719756     22.81227373
  O     22.21613279     18.94040449     11.83901731
  H     21.80803846     19.79143426     11.66349706
  H     23.06712485     19.07436598     12.26265257
  O     29.72209184     15.34661846     17.15334542
  H     30.59070741     15.75270235     17.10641069
  H     29.60719436     14.93412304     18.01255791
  O     26.03441648     26.56949845     13.49538942
  H     26.03234297     25.92376890     14.20576190
  H     25.65687626     27.39392877     13.81063222
  O     26.52492664     24.93601786     16.30120146
  H     27.48436835     24.95071469     16.27195057
  H     26.22515792     25.26576274     17.15149966
  O     10.61638974     14.49038689      5.45268601
  H     10.66084151     14.94928237      4.61064149
  H      9.88677955     14.83950788      5.96977740
  O     32.25749669      8.96463486      7.90164702
  H     32.36722356      9.81417348      7.46823711
  H     32.60615223      8.27000248      7.33815330
  O      1.45030709     14.50545824     27.14741719
  H      1.26948366     15.31881256     26.67059686
  H      1.71246135     13.82163377     26.52672464
  O     18.67658002     16.01523130     34.48060596
  H     18.61613991     16.88337728     34.07530416
  H     19.06389673     15.39666913     33.85693409
  O      6.08121893     12.08469722     26.99550266
  H      6.29409705     11.28209664     27.47728604
  H      5.18775351     12.02345000     26.64971613
  O     32.45559951     25.71961679     34.94779678
  H     32.17889827     24.80192130     34.89421122
  H     32.17240645     26.09126342     35.78641498
  O     19.45875276     34.34129980     28.82991394
  H     18.58577358     34.32748801     28.43076912
  H     19.87339536     35.19116252     28.66436976
  O     19.29766097      8.91699551     32.06043614
  H     19.80193281      9.20405194     31.29564302
  H     18.67325401      8.23747342     31.79592585
  O      3.63096051      9.58071776     31.50922306
  H      4.01452059      9.14630936     32.27457985
  H      3.26139324      8.92085650     30.91795058
  O     29.83122256      4.70343217      5.74461735
  H     30.22321700      5.57974853      5.74145336
  H     30.51990534      4.04391256      5.63348711
  O      5.45415165     29.42462643      0.86676691
  H      4.91304980     28.67747307      1.13241829
  H      5.71281734     29.92535716      1.64391605
  O     34.25015690     34.87764533     10.44968725
  H     34.04978780     34.89225175      9.51094400
  H     34.37814511     35.77563958     10.76405222
  O     19.23066035     33.85649266     31.24463868
  H     19.74050522     34.54583418     30.81282104
  H     18.96190733     34.15515292     32.11651818
  O      9.12072182     19.61739698     19.74268402
  H      9.84983226     19.00609077     19.87036604
  H      9.02044591     19.80553543     18.80665588
  O     39.21568753     17.93115645      5.80621579
  H     38.72766989     17.28657160      6.32385384
  H     39.64945394     18.55294684      6.39513294
  O     21.03185977     21.28996781     30.65028533
  H     21.51445888     21.73041481     29.94693296