#B3LYP/6-31+G(d) OPT FREQ

3055, Energy =      0.00000000 au

0 1
 Au     19.81307995     19.99360490     19.70092010
 Au     18.99753711     20.03557315     22.36215253
 Au     18.98039246     17.56917297     20.78618084
 Au     17.08386335     19.71208586     20.17118945
 Au     21.52363285     18.80267870     21.54611199
 Au     18.45498692     22.26998716     20.55103579
 Au     21.19891551     21.70794140     21.40078471
 Au     18.42724365     18.27926527     18.00105925
 Au     21.17117210     17.71722074     18.85080811
 Au     18.10252468     21.18453261     17.85573140
 Au     22.54229754     20.27512165     19.23065503
 Au     20.64576912     22.41803825     18.61566379
 Au     20.62862279     19.95163666     17.03968767
 Au     18.17072337     20.07812140     25.06016355
 Au     18.13619713     15.11123507     21.88644003
 Au     14.31692861     19.42667619     20.64795799
 Au     23.25782580     17.59529374     23.41680467
 Au     17.07812487     24.57782931     21.41290019
 Au     22.60390350     23.44597026     23.12414167
 Au     17.02225490     16.54123325     16.27770612
 Au     16.36832930     22.39191911     15.98504196
 Au     25.30923326     20.56052900     18.75389084
 Au     21.48996617     24.87597757     17.51540911
 Au     21.45543654     19.90908841     14.34167666
 Au     18.09181222     17.50556762     23.61342639
 Au     16.11124337     19.74343989     22.97118324
 Au     20.74775225     18.79373419     24.40703268
 Au     17.54312454     22.41468759     23.36786143
 Au     20.40864462     21.82773719     24.25526518
 Au     16.09334183     17.16774631     21.32537975
 Au     20.72984154     16.21804250     22.76122635
 Au     17.49624853     15.67143615     19.05908911
 Au     20.36176295     15.08448691     19.94649111
 Au     15.54465166     22.07686537     21.07981219
 Au     15.51567966     17.90931047     18.41683869
 Au     15.17657298     20.94331170     18.26507271
 Au     23.04667691     20.54021004     23.40306424
 Au     23.01770768     16.37265457     20.74009160
 Au     24.44958667     19.04390115     21.13677033
 Au     19.84205197     24.16116098     22.36389486
 Au     16.60845132     23.61455607     18.66175427
 Au     19.26439236     24.90272275     19.45535659
 Au     24.11047814     22.07790041     20.98500681
 Au     22.12991074     24.31577271     20.34275982
 Au     19.78410591     15.82604739     17.03794761
 Au     16.57947775     19.44700148     15.99878029
 Au     19.21751561     18.15947509     15.14657398
 Au     24.08151048     17.91034462     18.32203466
 Au     22.08303659     17.57252451     16.03397801
 Au     18.89631534     23.76916970     16.64061771
 Au     18.87840686     21.19347970     14.99480872
 Au     23.53281914     22.81946505     18.07646558
 Au     23.51491796     20.24377355     16.43065885
 Au     21.53434771     22.48164510     15.78841566
 Au     22.54803325     15.40937665     17.98894748
  O     17.27951771     39.28992631     16.03189989
  H     16.86343098     38.62511458     15.47827799
  H     18.04487123     39.65107310     15.57868140
  O      2.51299585     26.06087601     33.38918342
  H      2.76163753     26.31359667     34.28132107
  H      2.32203477     25.12039789     33.36398859
  O     37.28078215     18.69737108     17.28940896
  H     37.41155317     19.12616787     16.44050835
  H     37.85702310     17.93228273     17.35410980
  O     17.15272468     30.26171734     20.91725991
  H     17.02958627     29.49129884     20.35789217
  H     17.26235168     31.04183993     20.36863375
  O     33.49197579     22.68148596     19.24042444
  H     33.56053171     21.73769296     19.40214911
  H     34.34696396     23.02293161     18.96837646
  O     39.05960009      6.70210443      0.77943916
  H     39.60508000      5.91372680      0.72931555
  H     38.85136769      6.88986881      1.69758066
  O      6.27905453     34.41541221     31.21429120
  H      5.47705507     34.34044958     31.73657223
  H      7.04309904     34.27542731     31.77841903
  O     35.10048275      3.20647793     21.16692904
  H     34.91607296      2.48396218     21.77154794
  H     35.44789238      3.95459640     21.65807598
  O      3.00619656     21.98142545      9.67731695
  H      3.38740612     21.12921493      9.45367323
  H      2.18251190     22.09959376      9.19858964
  O     32.27409315      8.32294541     32.19987829
  H     32.90954685      9.03930165     32.26793954
  H     32.05942024      8.00047399     33.07824480
  O     35.44542042     19.57485104      8.53900769
  H     34.96409218     20.39723449      8.65566358
  H     35.73025087     19.49705484      7.62554211
  O      3.85912864      3.55050027     31.24167880
  H      3.03372796      3.16494303     31.54443173
  H      4.19946185      4.14673186     31.91270875
  O     18.36417918     11.50766470     17.78448336
  H     19.25529891     11.16322888     17.87866192
  H     17.94432309     11.55034643     18.64674732
  O     39.51013466     30.41729248     10.89875228
  H     39.51916720     31.21494039     11.43286484
  H     40.20467397     29.82485161     11.19578589
  O     29.73990129     27.95785360      9.90485490
  H     29.22635847     27.61390801      9.17029706
  H     30.64438114     28.10872072      9.62068009
  O     33.24283826     31.62546075     34.66820500
  H     33.69634919     32.47121615     34.64319214
  H     32.37739986     31.71377796     34.26222908
  O      1.09723609     11.72100167     30.01188563
  H      0.83368710     11.02570278     29.40467777
  H      0.60273077     12.52057256     29.81758975
  O     13.65673107     13.96773047     39.25643238
  H     14.13031191     13.22023836     38.88417341
  H     14.04147575     14.20067412     40.10455312
  O     11.02724254     38.58125682     23.99072793
  H     11.56945397     38.44440266     24.77103410
  H     10.25955467     38.00611614     24.02904924
  O     35.69344940     38.67848507     38.30535643
  H     34.85075314     39.13726562     38.27399684
  H     35.66666712     37.91867293     37.71920950
  O      8.38924229     -0.04521223     11.58785202
  H      8.13711163      0.84592478     11.84064637
  H      8.43409072     -0.59968839     12.37024886
  O     32.98508623     18.19971533     14.40008151
  H     32.26953048     17.60375475     14.63334307
  H     32.66422664     19.10446831     14.40851753
  O      7.09986115     14.59035849     18.25199482
  H      7.29584365     13.73881268     17.85442647
  H      7.91947012     15.05859796     18.42690320
  O     32.57762085     27.51603643     33.12731105
  H     32.60256020     26.67170328     33.58346844
  H     31.67158357     27.83044974     33.08440739
  O     23.89864291     18.31536559     26.41633301
  H     23.47423663     17.64645550     25.87407974
  H     23.93926829     19.14276944     25.93120165
  O     36.03075582     14.86626997     39.54926513
  H     36.38268779     14.77690058     40.43794787
  H     35.59262195     14.05092457     39.29460733
  O      5.66819275     31.50225339     30.87282831
  H      5.32299375     32.39744931     30.84024117
  H      5.31652520     30.99619775     30.13673210
  O     21.05528664     32.04003969     19.45961120
  H     20.83582776     31.31796234     18.86627983
  H     21.13128339     32.85508618     18.95808980
  O     27.23972545     21.01615771      7.46682016
  H     27.79536163     20.52022099      8.07255542
  H     27.54965764     21.92340870      7.41744736
  O      3.04892352      5.94150802     18.14550619
  H      2.46151165      5.66001170     18.85070624
  H      3.52457082      6.72898455     18.41980597
  O     29.40014415     33.80522819      3.50371099
  H     28.96507047     32.97677874      3.71814607
  H     30.33535432     33.73883472      3.71004527
  O     37.59692752      1.08822377     10.86226432
  H     37.99676522      1.21835141     11.72528032
  H     37.70357226      1.88424774     10.33636248
  O     39.18650329     36.08713353      1.45389901
  H     38.52526105     36.09647866      0.75800292
  H     39.66243494     36.92085291      1.45493580
  O      4.28511061     26.48517292     12.97899543
  H      4.87754636     26.06739536     13.60834573
  H      4.74891085     26.63269741     12.15151379
  O      4.52613786      4.06201014     11.63445805
  H      4.03097147      3.59072236     10.96044167
  H      5.26690515      4.51772743     11.22802777
  O      6.92297176      0.46767129     38.27243949
  H      6.93662811      1.13453986     37.58200497
  H      7.19204263     -0.37806120     37.90646488
  O      9.75890043     38.08269479     13.88337407
  H      9.01749430     38.10384206     14.49285725
  H     10.15013197     38.95735766     13.82419005
  O     13.87171272      4.97640099      8.03960505
  H     13.56058525      5.44636261      8.81673810
  H     14.42491884      4.24007521      8.31050601
  O     29.71614182     36.58275685     14.86304677
  H     29.27392316     35.77602959     15.13733454
  H     30.63458906     36.55516191     15.14106329
  O      2.28118297     37.09606495      7.06902549
  H      2.54120076     37.61283296      6.30290436
  H      2.69512927     36.23089271      7.02748697
  O     37.34951828     18.46213764      1.83384651
  H     37.65415217     19.17613864      2.39864805
  H     36.84994403     17.83078876      2.35674626
  O      9.25222443     39.13354627     30.34817928
  H      9.77664439     38.46448639     30.79420907
  H      8.95033626     38.79317404     29.50283303
  O     27.16957814     23.35389985     39.46542377
  H     27.74377058     23.30317442     40.23310208
  H     26.25534338     23.25803795     39.74216426
  O     36.56258183      6.30193912     34.81312392
  H     37.26676457      5.91283252     34.28936564
  H     35.76610485      5.77381081     34.72199269
  O     21.27835072     39.55117145      0.47982369
  H     21.27430127     40.20572170      1.18206836
  H     21.51396797     38.69394751      0.84211035
  O      3.73248669     13.65424467     39.47432701
  H      4.04027264     14.13187169     38.70054393
  H      4.31815086     12.91360871     39.64769323
  O     11.19376071      5.56158234     25.08318434
  H     11.77138237      5.12691074     24.45150893
  H     10.30863574      5.62527225     24.71699125
  O      5.12859398     20.08450600      9.25300727
  H      4.84520912     20.29197085      8.35955813
  H      6.08013848     19.95805387      9.26615711
  O     34.43218647      9.02266951     13.44253502
  H     35.30455224      8.91637967     13.05616675
  H     34.46738855      8.80747430     14.37744241
  O     29.46425369      2.83811688     24.49587540
  H     28.51616376      2.68948275     24.47070819
  H     29.74251589      3.27022026     23.68503829
  O     21.63452898     17.97780110     37.43509219
  H     20.88892511     17.69174052     37.96786251
  H     22.37611780     18.18685598     38.00775446
  O     17.21557875     34.83939949     27.62010435
  H     18.13171313     35.12167877     27.67125324
  H     17.08395827     34.32122214     26.82275355
  O     24.36277159     31.43966442     39.90922182
  H     24.92552514     30.79777689     39.47003069
  H     23.48229978     31.07278390     40.01770257
  O      7.89765262     24.14309876     35.25792329
  H      7.34697102     24.92938115     35.26840061
  H      8.80953120     24.38818025     35.43116451
  O      3.02699028     38.37978882     15.82582727
  H      2.53521244     39.17560827     16.04129410
  H      2.50068726     37.60804791     16.04723437
  O      6.84368670     26.68966307     36.90159784
  H      7.21092421     27.08252672     36.10636532
  H      6.91648804     27.31155678     37.62929846
  O     21.18703078     19.34336283     32.39924679
  H     21.27165854     19.76607908     31.54148860
  H     21.99766025     18.87237508     32.60576650
  O     34.14506381     10.98604133      6.45500109
  H     34.39434468     11.70343214      7.04220589
  H     33.21784550     10.77356555      6.58430789
  O     18.47551489     14.09513293     27.43386286
  H     19.37969911     14.19641718     27.74011832
  H     17.87275488     14.20323187     28.17318348
  O     37.52045187      8.21846092     13.84345535
  H     37.02326778      9.00213589     14.08893758
  H     38.45964207      8.39060064     13.94290226
  O     29.10604395     28.03005177      3.55546372
  H     29.63232249     27.46453949      2.98552798
  H     28.54739588     28.59607320      3.01775368
  O      9.75586710     20.13529974     34.63521536
  H     10.15436756     20.60676994     33.90001931
  H      9.03992990     19.58355865     34.31177184
  O     28.34663540     15.66584636     15.07433116
  H     27.65424909     15.40688077     15.68681628
  H     29.13322368     15.14079666     15.23926050
  O     25.50372987     34.55450292     35.97868079
  H     26.01953734     34.52276592     35.16964715
  H     26.05971917     34.85414402     36.70165458
  O     28.10714856     10.15768423     10.84904982
  H     27.81141308     10.30393281     11.75057735
  H     27.34852017     10.14578500     10.26088201
  O     12.95523696     19.62856267     30.20228868
  H     13.43907131     20.43226316     30.40617553
  H     12.78218623     19.58930690     29.25883098
  O     35.61606120     23.92983880      9.56363633
  H     35.87947679     23.75148951      8.65787491
  H     34.69044840     24.18365294      9.58411410
  O     34.97912675     17.01270281     17.35661961
  H     35.15324050     16.68276000     16.47207331
  H     34.59868303     17.89236947     17.30140058
  O      6.89194679      3.40317370     20.07753020
  H      6.05250213      3.27213760     20.52447785
  H      7.60999700      3.16055391     20.66671569
  O      0.19372623     39.14605563     24.86122822
  H      0.43473687     38.99150703     25.77754073
  H      0.50487024     40.01273610     24.58983483
  O      8.09167904     19.94947031      6.63435489
  H      8.16632582     19.70890388      7.56072180
  H      8.96740000     19.99598568      6.24377952
  O      6.64032337     13.84408691     37.59420468
  H      7.46673915     14.28570739     37.80303073
  H      6.03521075     13.92976382     38.33454122
  O     27.91900670     40.13593294     16.62049318
  H     27.27966834     39.61626276     16.12775657
  H     27.53009930     40.41847174     17.45147024
  O     11.55383023     23.21724437      3.33793766
  H     12.42393347     23.03375778      2.97620153
  H     11.57897223     23.12912615      4.29355424
  O     34.62865483     26.76730950      8.94309347
  H     34.92164154     25.93460411      8.56578654
  H     34.33601006     27.35220660      8.24034569
  O     20.23406769      3.91329227     39.02593245
  H     20.04125913      4.67245958     38.47087402
  H     20.89258608      3.36182446     38.59717051
  O     26.94182548     16.43898511      4.60802788
  H     27.24074546     16.44614382      3.69578032
  H     26.14760323     16.97211080      4.68919442
  O      4.78687695     16.13872287     11.75447971
  H      4.38920287     15.26737618     11.81936641
  H      5.67585362     16.05972466     11.40081353
  O     31.33064380     37.42984458     29.62406783
  H     31.82224441     37.33617793     30.44330858
  H     31.92822534     37.33346912     28.87894497
  O     17.48479762      4.44981450     24.70897739
  H     16.74032950      5.05591171     24.71263808
  H     17.32614307      3.75122984     24.06990915
  O      3.13844803     13.03338771     14.82406430
  H      3.46729857     12.17444239     14.54898202
  H      3.38414860     13.19282450     15.73829137
  O     32.24749927     12.51214880     -0.07062792
  H     33.07820182     12.06484029     -0.24796482
  H     32.14618799     12.63650738      0.87587669
  O      8.94614993      4.01498362     15.79363192
  H      9.69858428      3.42629827     15.69933395
  H      8.37113893      3.69094367     16.49074057
  O     30.03552695      7.96176187     34.28062960
  H     30.39278753      7.58583048     35.08849126
  H     30.36157117      8.85823802     34.17280716
  O     37.75977338     30.18884871      0.64559892
  H     38.52410388     30.16572528      0.06519888
  H     36.95713730     30.15618507      0.11994845
  O     26.29925115      6.23742389     34.30360354
  H     25.75690390      5.74562374     34.92456415
  H     25.83390495      6.32122676     33.46812164
  O      8.94333796     13.38360483     15.19808360
  H      9.03070739     12.46281112     15.45519353
  H      9.63145865     13.90144084     15.62227198
  O      6.75951391     33.56773721     29.45299722
  H      6.20214283     32.93246118     28.99762721
  H      6.59152126     34.44734708     29.10707100
  O     18.82488294     33.01075628     24.44677300
  H     18.86113939     33.70844585     23.78835465
  H     17.92504148     32.92055189     24.76887318
  O     33.49932756     15.88980657     32.51159228
  H     33.03119161     16.49832052     31.93525947
  H     34.43985549     16.07991030     32.48213400
  O      1.85041847     16.51414447     30.45215264
  H      2.77915586     16.29747289     30.56215399
  H      1.47841619     16.76960284     31.29947509
  O     26.32588252     27.70246060     -0.33055324
  H     25.84223589     26.99830993      0.10746249
  H     26.63794079     28.33194997      0.32363540
  O      7.17232430     28.22377618      2.77263099
  H      7.38617277     27.71972101      3.56117219
  H      7.95763174     28.67948418      2.46082584
  O     23.96345881     38.42186245     15.38051669
  H     23.54850827     37.84736519     16.02810371
  H     24.48785264     39.08736392     15.83186899
  O     36.75372395     17.40047738     24.71207578
  H     37.58810743     17.74903558     24.38972287
  H     36.49009224     17.87899671     25.50145375
  O     31.02572584     26.60800607     11.12114045
  H     31.31572686     27.44510708     11.49095299
  H     30.82227097     25.99661046     11.83275939
  O     19.21657515     14.53913559      0.84547289
  H     19.97943197     14.15529153      1.28400819
  H     19.11540424     14.14575517     -0.02436405
  O     32.07916736      1.99431856     10.14183348
  H     32.52601336      2.84037271     10.06359654
  H     32.13737562      1.68379127     11.04835685
  O     15.62876410     35.71874025     24.92080633
  H     16.06054572     36.39504210     24.39375753
  H     14.90012233     35.34098088     24.42283139
  O     30.03844046      0.93474706      8.18958165
  H     29.85496697      0.30426129      7.48927801
  H     29.35917102      0.87026744      8.86488559
  O     27.38216712     26.49485568     30.87808224
  H     26.88496823     25.69011556     31.04174840
  H     26.89598900     27.05323035     30.26697786
  O     16.86718487     27.57284021      2.88901542
  H     15.91328698     27.65849630      2.82312267
  H     17.22652090     28.33581938      3.34764426
  O     18.57264512     31.55105261      9.60294591
  H     19.09670562     31.64933495     10.40125736
  H     18.94226615     32.09984329      8.90738204
  O     12.82356877     28.54000677     33.08366066
  H     12.72666582     29.18028504     32.37496217
  H     13.06806576     27.68813747     32.71468923
  O     31.14978249     38.20598328     13.43169459
  H     31.47812672     39.08790324     13.24193881
  H     30.37849867     38.26660333     14.00006637
  O     21.62573029     13.39729805     21.57426298
  H     22.42866301     13.89815675     21.41289502
  H     21.37917109     12.92168554     20.77764431
  O     21.98068368     29.99338185     30.31271226
  H     22.39266986     30.85990041     30.28088486
  H     21.05522632     30.06941679     30.06909913
  O     13.65342923     31.46238552     27.93466338
  H     12.94544406     31.38296187     28.57812969
  H     13.36375833     31.10195365     27.09336697
  O     40.24331009      0.35802504      1.55446471
  H     40.11544665     -0.50890200      1.94649591
  H     39.46360101      0.59934128      1.04907354
  O     37.35961033     27.26657050     37.97608133
  H     38.09478186     26.95142483     37.44522728
  H     36.53315099     27.06149123     37.53278971
  O      7.01102340     24.38065501     30.69392038
  H      7.06051277     25.18372952     31.21758261
  H      7.68915632     23.76636818     30.98441553
  O      4.47449129     14.94167583     35.48259904
  H      3.54993164     14.88309996     35.23088823
  H      4.83003050     14.05830074     35.60441995
  O     15.61191490      4.27248306     21.43314623
  H     16.52193386      4.56760429     21.35334058
  H     15.06302762      4.75406506     20.80992753
  O     35.50173235     33.41794409      8.83683778
  H     36.36699044     33.79774018      8.66747614
  H     35.52040908     32.47823558      8.64139188
  O     23.32441778     37.36228577      6.44878604
  H     23.89674196     37.26929055      7.21389840
  H     22.48871502     37.74986393      6.71894169
  O     16.06872368      6.87304583     17.20189310
  H     15.71183678      7.24522572     18.01165472
  H     16.15305463      7.56452909     16.54133334
  O     39.69106552     23.25501315     32.77277312
  H     40.17299232     23.00576644     31.98079923
  H     39.32271269     22.46974802     33.18420341
  O     35.78555758     31.70868433     34.80191054
  H     36.13932715     30.81914803     34.72999208
  H     36.49137596     32.31642875     35.03443397
  O     30.48752802     24.56090800     38.89918931
  H     29.84553431     24.46937623     39.60704948
  H     30.99088396     23.74770162     38.81595359
  O      1.07853738     13.24267667     35.83893865
  H      1.41663161     12.65554405     35.15881544
  H      1.11023230     14.14915845     35.52447685
  O      9.96655935     17.91729454     18.86619148
  H     10.49904547     18.30527149     18.16795626
  H     10.35949719     18.11903475     19.71854161
  O     18.14853210     37.36270048     39.74493641
  H     18.49317960     36.55754355     39.35182011
  H     17.56726925     37.80138710     39.11940660
  O     31.70071503     27.81885343     39.63942743
  H     31.66608932     27.98232971     40.58477211
  H     31.42020142     28.60640373     39.16754116
  O      1.29517686     27.23024484     23.60885919
  H      0.36959773     27.01554102     23.47172584
  H      1.82811815     26.79185694     22.94148401
  O      4.10303220     17.44414528     33.21993227
  H      4.60880106     17.83151584     32.50178053
  H      3.45441925     16.83350646     32.86213136
  O     18.91292949      2.65043993     16.13748205
  H     18.94126417      2.08546505     15.36185292
  H     18.42672573      3.45235943     15.93222363
  O      7.96297295     35.15569846     25.23356437
  H      7.98715734     35.72104026     26.00906664
  H      7.35045899     35.52002783     24.59037640
  O     28.70637600     15.55360685      8.22585240
  H     29.59408042     15.42585176      8.56828417
  H     28.22516910     14.72386048      8.26536036
  O     -0.08829438     23.02393396     12.23263691
  H     -0.44388662     22.19421414     11.90595788
  H     -0.81015080     23.61450211     12.46012882
  O     18.92206616     13.78035254     37.59634902
  H     18.74702161     12.83654544     37.61004477
  H     18.94306738     14.08922366     36.68763698
  O     11.22362016     17.14845893      5.86450116
  H     10.63680282     17.79411379      6.26496991
  H     12.13488419     17.42512311      5.98555821
  O     30.88084975     29.56011137      1.30643952
  H     30.13046559     29.15783383      1.74994420
  H     30.66749361     29.70301157      0.38142130
  O      9.16673552     31.80277899     17.05626310
  H      9.61051241     31.07691872     17.50099780
  H      8.74450453     32.36757389     17.70766751
  O      0.84499645     20.20857590     22.65042360
  H      0.68559878     20.56669928     23.52674547
  H      0.69020074     20.89039404     21.99257687
  O     35.72473862      9.27409073      8.54637589
  H     35.05312822      8.58885955      8.51478950
  H     35.84294102      9.64759042      7.66994781
  O      6.59126581     12.34031615     21.83558487
  H      6.49833448     12.21877775     22.78331489
  H      7.49677797     12.58496482     21.63114719
  O      5.87030717      6.92599387     35.19045891
  H      6.16455372      7.80718250     34.94853830
  H      4.98577832      6.77818850     34.84787713
  O     15.28854271      6.44477170      5.43573698
  H     15.19801632      5.54895837      5.76878872
  H     15.47921078      7.03986706      6.16450800
  O      0.01708683     28.15257114     10.48603278
  H      0.54543570     28.83587817     10.90500650
  H     -0.53180261     27.72228374     11.14570932
  O      8.22288125     10.16288498     28.38428157
  H      8.22456614     10.84518675     27.70895834
  H      9.09099150     10.11244443     28.79102515
  O     10.76591668     33.34228305     26.01368198
  H     11.26531558     32.61374619     26.38976014
  H     10.92467939     33.38514103     25.06787143
  O     23.85151373     28.68269304     23.83696344
  H     23.17340306     28.14555321     23.42073426
  H     24.62479277     28.14203760     24.01396974
  O     34.09343741     39.73492603      3.42833535
  H     33.35635021     39.16111349      3.20688191
  H     34.74936465     39.69865133      2.72830421
  O      0.61650347      6.76322367     36.05122071
  H      0.15308007      7.39018854     36.61135802
  H      1.07402334      6.12125763     36.59908491
  O     11.06037466     12.23844621     12.26285400
  H     11.75227490     12.16219356     11.60174917
  H     11.25754638     11.65784017     13.00151492
  O     19.99788049     31.65463942      4.66095072
  H     19.50685076     31.51286189      3.84830754
  H     20.85386688     32.03761277      4.45547876
  O     19.27872303     28.72030607     33.52985450
  H     18.69043917     29.33422093     33.08417451
  H     19.83552373     28.28238775     32.88193435
  O      1.31578292      4.46758720     38.45543537
  H      0.73328022      4.18605704     39.16468242
  H      2.21657302      4.52159941     38.78294092
  O     20.23975861      7.63440434     10.88799323
  H     20.47079559      6.70280554     10.90658366
  H     20.89957208      8.13788982     11.37043343
  O     12.33642900      7.74304179      8.26558096
  H     11.63726197      8.31694789      8.58713541
  H     13.18474158      8.06451336      8.57962205
  O     23.26469003     32.79552759     23.29409041
  H     23.20092613     32.76445090     24.25146620
  H     24.16632163     33.00505107     23.03960983
  O      6.43151526     31.57165187     23.65861496
  H      5.71016053     31.88428706     23.10770064
  H      7.12575424     31.21008869     23.10282335
  O     11.82680145      7.37252723     18.67540329
  H     11.81716637      7.46089475     19.63127898
  H     12.71967859      7.17922764     18.38043602
  O      2.91847493     29.73328823      8.45498267
  H      3.56262479     30.44506863      8.44868878
  H      3.12245461     29.12278086      9.16721370
  O     15.17845026      4.99861237     18.16021868
  H     15.88484480      5.37005328     18.69373382
  H     14.35450860      5.44831254     18.36143969
  O     30.03562986      9.79987526     32.01413004
  H     29.85878583     10.28143791     32.82556309
  H     29.97317032      8.85659087     32.18120302
  O      9.82318242      1.46393731     13.85434420
  H     10.75582692      1.61324946     13.68264644
  H      9.63961171      1.61899846     14.78378373
  O     31.07496351     17.51509423     16.98614316
  H     31.83374144     16.92744314     17.00899575
  H     30.27362505     16.99938535     16.86994923
  O     10.17016504     17.91635027      2.05783053
  H     10.49915866     17.18992417      1.52335105
  H     10.90661411     18.45859127      2.34975085
  O     28.43629560     35.31143114     25.61477981
  H     27.56370579     34.97885583     25.83744703
  H     29.03879980     34.57404446     25.49292098
  O     37.68967136     29.72543463      8.05431594
  H     37.10782769     30.48323766      7.96054747
  H     38.02979191     29.47398585      7.19252042
  O     29.97806796      8.05856633     11.94959805
  H     30.86954705      8.26647684     12.23880085
  H     30.01128005      7.63167570     11.09037668
  O      1.16024656     20.45362506     12.26281666
  H      1.93648565     20.65950287     11.73682502
  H      0.98644573     21.17396680     12.87314531
  O     15.59686532     12.33856408     33.57485021
  H     15.55715886     13.13194432     33.03580365
  H     15.67293686     11.56854525     33.00662126
  O     33.62416218      1.69339738     38.62145844
  H     33.42607216      0.75634402     38.55595003
  H     34.04361513      1.98972984     37.81038119
  O     31.66382099      1.03499322     17.21865553
  H     30.83901682      1.32560673     16.82262286
  H     32.24434958      1.78983462     17.34031493
  O     31.23503729     24.97664699     32.62243945
  H     31.93807837     25.08647435     31.97802406
  H     30.42593009     24.72087737     32.17352138
  O     16.41808885     35.65030224     20.94970438
  H     16.65926795     35.92926652     21.83605170
  H     15.73783494     34.97480805     21.00032267
  O     21.04055218      7.56446823      1.38450589
  H     20.40666579      8.14976367      1.80547774
  H     21.63127574      8.07823614      0.82890871
  O      8.93578278     28.82350064     26.20339399
  H      8.06594076     28.42409781     26.27723322