%nproc=16
%mem=24GB
#N B3LYP/6-31+g(d) Empiricaldispersion(GD3) SCF(XQC) Geom(NoCrowd) Opt

opt

-1 2
>>>>


>>>>


