#B3LYP/6-31+G(d) OPT FREQ

3005, Energy =      0.00000000 au

0 1
  O     -5.57062546      6.24639216      7.27726345
  H     -5.80828103      6.52194232      6.38889869
  H     -5.15906639      5.37970061      7.24463056
  O      6.69325366     21.75819514      2.91247842
  H      6.82573692     22.70348302      3.01484549
  H      6.85445694     21.31936037      3.75095177
  O     -6.92961052     17.58738925     -0.55634423
  H     -7.45939723     16.90436942     -0.97396842
  H     -7.06692014     17.56353808      0.39348585
  O    -11.46102619     -5.68808090      5.43877273
  H    -11.24619663     -4.84218385      5.03888969
  H    -12.36875099     -5.92014500      5.22953138
  O      9.24298968     17.82201541      0.02346711
  H      9.31361459     18.54913963      0.64628530
  H      8.55346967     18.01391672     -0.61632665
  O      1.63673692      6.52890609    -10.22736950
  H      2.43229355      6.18977662     -9.81061915
  H      1.28474912      7.25295051     -9.70443138
  O     -4.54008806    -10.89225969     -4.41903296
  H     -5.12571009    -10.66065488     -5.14360597
  H     -3.70919947    -11.22010687     -4.77080049
  O      4.32474805      1.61815968      4.18858984
  H      4.52188951      0.86011313      3.63352167
  H      3.38530406      1.63554371      4.38542174
  O      5.38721005     -5.41826948      4.61048654
  H      5.48106695     -6.19828383      5.16218256
  H      5.29436988     -4.64149396      5.16690409
  O      9.68412797      5.59405763     -6.47593510
  H      9.23969625      6.29098307     -5.98769809
  H      9.89224147      4.86920057     -5.88190563
  O      2.96761987    -19.09249877      0.38008760
  H      3.39496235    -19.43283435     -0.40931097
  H      2.72098204    -18.17523465      0.24081695
  O    -12.79728069     -5.52692479     -1.40807932
  H    -12.12254464     -5.12881738     -0.85324442
  H    -13.46157637     -5.94457695     -0.85501701
  O      1.09069966      5.61963825     -3.07659191
  H      1.56671189      6.00302281     -3.81688148
  H      1.54775327      5.82895847     -2.25873676
  O     -5.55027145    -19.51835278     -1.55454535
  H     -5.31240532    -19.42479171     -0.62919891
  H     -6.17355384    -18.82943549     -1.79643795
  O    -11.29175689      7.86113968      0.70274290
  H    -11.79730399      7.11464552      1.03254374
  H    -10.79115786      8.25221872      1.42250522
  O      1.21098617      9.55548719     -1.04218000
  H      0.83634552     10.26594432     -1.56800796
  H      0.50337131      9.05347361     -0.63124987
  O     -1.61703966     21.67094972     -5.15378330
  H     -2.26495520     21.21278776     -5.69405460
  H     -0.96930617     22.09541674     -5.72111836
  O     16.61107023     -4.83256231      6.12467007
  H     16.69487253     -5.78864821      6.14650882
  H     16.11973558     -4.53628112      6.89435035
  O      1.75528106      8.99067864     -5.38488266
  H      2.04721048      8.11829019     -5.11044577
  H      2.31222838      9.65792985     -4.97722409
  O     -9.67774443      5.21544590     -1.80368090
  H    -10.18286988      4.55270465     -2.28035934
  H    -10.05369946      5.33687785     -0.92874542
  O     14.66992295     12.63067804     -4.25361638
  H     15.27688829     13.07044581     -4.85344751
  H     14.06443064     13.27555793     -3.88064318
  O     -2.32529238     -3.07555434      6.74109145
  H     -3.05097711     -3.45059001      7.24540279
  H     -2.12529665     -2.19695346      7.07224428
  O     -6.02828548     14.71541257      7.43078694
  H     -6.43343567     13.86087729      7.26579363
  H     -5.64221469     15.04935509      6.61774835
  O      2.55917262     14.32320150      0.22934124
  H      2.84167847     15.13802522     -0.19238468
  H      1.66588346     14.11046442     -0.05061843
  O      3.11982051     -8.83915710     -7.66097963
  H      3.18849310     -8.76918540     -8.61596028
  H      3.05891920     -9.76403236     -7.41098604
  O     -4.80908872     10.04429338      6.70179130
  H     -5.18670042      9.30304080      7.18090928
  H     -5.31748865     10.20190921      5.90286279
  O     13.28630401     15.07629579      0.27952304
  H     13.98609890     15.70948050      0.45548961
  H     12.86616608     14.82526012      1.10539544
  O     -0.32863548      5.37998451     -1.27791508
  H     -0.00976780      4.56856160     -1.67980595
  H     -0.70617816      5.94613854     -1.95506436
  O     12.79035946      6.75622064     -0.70956201
  H     13.38046786      6.25919098     -0.13830585
  H     11.92209282      6.81079255     -0.30368646
  O      2.21949389     -3.25310419     -1.25449679
  H      2.09523838     -2.36116724     -1.58707619
  H      2.78592378     -3.23022065     -0.47974939
  O     18.58112861      2.58698553      3.97674431
  H     18.04922625      2.62693382      3.17856888
  H     19.51055530      2.54240359      3.74056963
  O      8.34104112    -15.85772860     -6.27940350
  H      7.47512334    -16.26762130     -6.21796756
  H      8.51017044    -15.60079450     -7.18878798
  O     -5.26470354     16.07364887      2.93541831
  H     -4.95837375     16.75449623      2.33192105
  H     -5.64803078     15.35008732      2.43430064
  O     -6.73388835     -4.03075688      5.96882329
  H     -7.01163188     -3.31181778      5.39647278
  H     -6.54004013     -4.80660010      5.43770169
  O     -2.30493589      3.70553771      5.68713635
  H     -1.67563258      3.05872115      6.01455914
  H     -2.94985260      3.89995476      6.37115715
  O      9.72951868     16.71795831      3.51309064
  H      9.08980631     17.39893697      3.29255458
  H     10.17784444     16.42887899      2.71494457
  O    -13.07974668      9.77138523      1.67639636
  H    -13.57442988     10.40163607      2.20523698
  H    -12.21128339      9.63986373      2.06378972
  O      3.36640731     12.00926291      3.10843796
  H      3.59764607     12.79108576      2.60160299
  H      2.45725093     11.76378556      2.92195594
  O    -13.91203578      0.48622555     -6.51234183
  H    -13.49578715     -0.19624536     -5.98076818
  H    -13.85002609      0.25140042     -7.44111089
  O     -6.07632543    -11.78366322      8.45162417
  H     -5.30343617    -11.53038074      8.96161455
  H     -6.78848478    -12.02599678      9.04803301
  O     16.21797935      3.89972483      1.47683327
  H     16.36714423      3.21707115      0.81855233
  H     16.18323246      4.75736581      1.04689769
  O      1.20739092     -8.53495354      8.21546367
  H      1.11412793     -7.72032016      7.71618974
  H      1.45200758     -9.24851372      7.62166693
  O      9.90360277     15.29580994     -3.51334126
  H     10.14656168     15.70413190     -2.67916853
  H      9.05512747     14.85652250     -3.41998056
  O     -2.26185976     -7.34093215     -0.02120292
  H     -1.92617337     -7.03240937      0.82362152
  H     -2.95911122     -7.98405321      0.12656617
  O      2.61840722     17.31521564     -7.38663006
  H      3.15679283     17.42091626     -8.17439165
  H      1.70074310     17.19133077     -7.63989890
  O      0.23542901     -4.21113649      2.37026575
  H      0.42855512     -4.75737932      3.13572056
  H     -0.25802571     -4.72457778      1.72646416
  O     14.60682405      4.21637950     -3.64875305
  H     15.26809887      4.59372017     -3.06400556
  H     13.95779765      3.73512586     -3.13033269
  O     14.39864566    -12.55920328     -0.55906278
  H     14.13182427    -12.58987984      0.36260163
  H     15.35666206    -12.58226972     -0.61626877
  O     -4.32190955     -5.63271693     -0.13182481
  H     -5.02883843     -5.28870789     -0.68274162
  H     -3.63741535     -6.01146940     -0.68825473
  O     16.55138340     -7.91262740     -4.05955126
  H     17.03364228     -8.55805617     -3.53758567
  H     16.99503048     -7.06284818     -4.00804819
  O      8.18684792     15.52981577     -0.93334982
  H      8.99171336     15.06585089     -1.17527588
  H      7.58120062     15.53061040     -1.67819257
  O      6.48873479      5.32786351      3.27588558
  H      6.46996665      6.18912589      3.69953033
  H      5.59195220      4.99993942      3.17665468
  O     -8.68406242     -9.46866351      5.85270664
  H     -7.75248961     -9.26808566      5.73634245
  H     -8.77785959    -10.34191819      6.24029968
  O     16.52668731    -10.45873904     -3.15529163
  H     17.45360556    -10.46666514     -2.90557230
  H     16.10996386    -11.27385532     -2.86628123
  O      6.30086120     10.95620767      5.93975851
  H      6.99870505     11.53947585      6.24702418
  H      5.57358613     10.96886742      6.56626526
  O    -10.44627633     -2.51267122      1.37301314
  H    -10.59383573     -2.03744520      0.55204635
  H    -11.15326997     -2.31234288      1.99077405
  O      6.65216884    -20.99539401      1.23788504
  H      7.27269184    -20.48573139      0.71177172
  H      6.94610662    -21.01367356      2.15159530
  O     -0.06298309     -0.41885284     -5.96281754
  H      0.34449809     -0.52917858     -5.10061842
  H     -0.78708214      0.20802360     -5.89719354
  O      6.27858863    -12.07361302     -1.91437561
  H      6.77962683    -11.53147938     -2.52809528
  H      6.27238880    -12.98311033     -2.22158271
  O    -12.51632805     -7.60458158     -0.25825208
  H    -11.88029186     -7.14182290      0.29212268
  H    -13.14188676     -8.07284262      0.29942874
  O    -17.88746610      5.91888806     -1.69981955
  H    -17.83320184      5.02648952     -2.04950547
  H    -18.44044458      6.45466805     -2.27319081
  O      6.45565556    -11.40041091      8.22212895
  H      6.51547489    -11.73805443      9.11879974
  H      6.21629300    -10.47101137      8.24497776
  O     -7.00525353     -2.94681368     -0.66248813
  H     -7.90613833     -2.63828043     -0.54077611
  H     -6.40888075     -2.19478259     -0.68220520
  O      9.95584090    -10.93266593      1.27625242
  H      9.52621919    -10.29161013      0.70522471
  H     10.34382745    -11.62902787      0.74132580
  O      3.35544286    -20.18517362      5.52097293
  H      3.52214262    -19.66738515      6.31198891
  H      2.47963046    -19.98261822      5.18403976
  O    -14.22489074      7.43658759      0.01902849
  H    -13.98043114      6.62542893      0.47053833
  H    -13.58640334      8.12313400      0.22539674
  O     18.40369829      7.15736343     -1.18936564
  H     19.22795381      7.61357609     -1.00477731
  H     17.85222903      7.16145723     -0.40357630
  O     13.18860556     -4.96015521     -7.29493485
  H     12.63467589     -5.32763575     -7.98755305
  H     12.70350492     -4.27816948     -6.82464468
  O     -6.37993936    -22.13889583      1.01937811
  H     -6.45156342    -22.92695589      0.47584215
  H     -7.24198013    -21.91896863      1.38009648
  O      5.18772182     12.61052659      0.84587980
  H      5.35855418     13.52564731      1.08033739
  H      4.41424766     12.56394149      0.27916333
  O     -9.18299859      3.70196759     -0.17097910
  H    -10.01778128      3.53191757      0.27153740
  H     -9.20078047      3.31387640     -1.04885667
  O     10.50016560    -10.67848424      5.56149615
  H      9.62498250    -10.29138453      5.63770875
  H     10.46728905    -11.60006954      5.82832881
  O     -8.89380730     -0.09235228      6.53845191
  H     -8.98383487     -0.82926298      5.92979959
  H     -8.77373215      0.72049216      6.04199861
  O      3.68639202     -0.17352831     -6.78585701
  H      4.23522799      0.60016777     -6.63829871
  H      3.09573889     -0.29463026     -6.03882073
  O      5.66543515     11.66894358      2.97104379
  H      5.19575910     11.46249172      3.78245123
  H      5.70066762     12.62120235      2.85458818
  O     -0.74203542     -2.92390618      0.41231152
  H     -0.85533158     -2.76743674      1.35267384
  H     -0.98753773     -2.13452999     -0.07576005
  O      4.02227549     -9.65933548      0.92296580
  H      3.69963271    -10.29606949      1.56489371
  H      4.76168266     -9.17423700      1.29653842
  O      6.82931902     -4.31361676      2.37457315
  H      7.45196310     -3.61483206      2.58814819
  H      6.64573387     -4.83098387      3.16211856
  O      9.14134694      9.53698039      0.56263785
  H      9.58306562      9.32453348      1.38807769
  H      8.19685072      9.61537073      0.71554908
  O     -9.06982968     19.81762345      3.66948255
  H     -8.98050165     19.01277929      3.15387962
  H     -9.46669309     20.50320834      3.12719776
  O     -2.21927471     14.99982620      6.08896950
  H     -2.25521001     15.27704689      7.00736884
  H     -1.30490206     14.97354440      5.79771028
  O      2.41976891     -4.94505137      1.85409313
  H      2.40474400     -4.11253943      2.33189867
  H      2.12073859     -5.65133883      2.43144821
  O     -9.31143317     11.23589495     -5.49317084
  H    -10.08187744     11.72391805     -5.79291923
  H     -9.56363113     10.64603697     -4.77898336
  O      7.93454751    -17.96724435     -4.02187013
  H      8.79805173    -17.92471000     -4.43918453
  H      7.27649846    -17.58552332     -4.60741304
  O      3.83476967      0.27960834      6.94850949
  H      3.42758749     -0.51523974      7.30067309
  H      3.52717397      0.42660828      6.05108211
  O      5.65014945     -0.91232092     -6.30793610
  H      5.98052017     -0.18657406     -5.77338330
  H      5.42131490     -1.65101506     -5.73910772
  O      9.78929575     20.17613442     -2.02550100
  H     10.23589556     20.96686860     -1.71423251
  H      9.14079989     20.41556540     -2.69162856
  O     -0.83717787    -17.91824225     -4.34887613
  H     -0.81765438    -17.06308089     -4.78467182
  H     -0.66420567    -18.60967130     -4.99199858
  O      5.58733763      6.43657105     -2.69856302
  H      5.63347636      6.95230373     -3.50695094
  H      4.68046887      6.41353486     -2.38446370
  O      3.91133125     10.46690230      5.35170323
  H      3.53974985     11.35018322      5.40951398
  H      3.39173853      9.86483650      5.88942079
  O      8.46984297     -2.52474545     -7.98642227
  H      9.41934795     -2.66509729     -8.00490634
  H      8.17042199     -2.47845555     -7.07548630
  O      1.66803570      4.40896326      0.35336060
  H      0.97104491      3.85101036      0.00052579
  H      2.47805487      3.89956169      0.43068453
  O      0.03218540      5.27334974     -5.80821367
  H     -0.28738485      5.71214373     -5.01642159
  H     -0.28769326      5.73942064     -6.58413606
  O    -18.66300573     -0.82105443     -3.77948067
  H    -18.58718646     -1.58278058     -3.20014941
  H    -18.71538452     -0.02092586     -3.25160689
  O     17.85256951      9.98852835     -1.76544727
  H     17.86483665      9.13698327     -1.32236658
  H     17.02512884     10.43670764     -1.57550713
  O      7.35947860     12.72887395      8.27920317
  H      7.12434498     13.40396579      7.63845112
  H      8.16280106     12.28531356      7.99719747
  O     13.48332946     16.20287597      2.85873179
  H     13.88083657     16.77235924      2.19595211
  H     13.41727210     16.67714361      3.69078145
  O     -7.96961085    -10.51449598      1.65219768
  H     -8.40094394    -11.10862847      1.03368466
  H     -8.62400831     -9.93532406      2.04959402
  O     -7.54524617      8.25833063      7.02310026
  H     -7.34804515      7.93552885      7.90543283
  H     -7.54579304      7.52325677      6.40563275
  O     -1.06387649      8.60910419      2.96716742
  H     -1.04791432      8.59148761      3.92687303
  H     -1.96762423      8.50735947      2.65977835
  O    -11.17996882      2.20093814     -7.76536717
  H    -11.70585285      1.68221979     -8.37853702
  H    -10.39093277      2.51947662     -8.20983917
  O      8.83555312    -19.73362912     -0.52261903
  H      9.18455983    -19.50560870     -1.38737391
  H      8.80117878    -18.94705038      0.02666440
  O     11.57307487    -13.88974795     -2.91326887
  H     12.48279598    -14.18225515     -2.82136113
  H     11.28061091    -14.03144152     -3.81658929
  O     13.67693869     -3.68927816      2.65833801
  H     12.86030879     -3.42208507      2.23017512
  H     13.78625398     -3.19726046      3.47538682
  O     -9.93308897     11.24146405     -2.60567642
  H    -10.78674042     11.04162098     -2.21459849
  H     -9.30607525     11.45955220     -1.91221312
  O     -0.63609880     21.58114486      1.76005035
  H      0.04785499     21.28901109      1.15303710
  H     -1.47080048     21.65371152      1.29142770
  O     -4.62116568    -16.67701267     -3.28364949
  H     -5.12695979    -17.49270748     -3.30400397
  H     -4.33391525    -16.50041287     -2.38481708
  O     16.62910705     -3.39353206      2.73954449
  H     15.88107787     -2.80943334      2.59504177
  H     17.33808407     -2.90672807      3.16612797
  O     -3.15251529    -15.76804981      0.25724965
  H     -2.70371507    -15.11678040     -0.28683354
  H     -2.52024919    -16.42483442      0.55803788
  O      4.62477557      4.11523455      4.69188910
  H      4.23543363      3.60533563      3.97773509
  H      4.22318588      4.98676923      4.71933067
  O     -0.65774937     16.91342730      3.64553272
  H     -0.33795764     16.09554514      3.25771571
  H     -0.13870564     17.12265093      4.42554495
  O     -7.07440351    -17.39584763      5.99164868
  H     -7.26019761    -18.05523221      5.31912171
  H     -7.45332353    -16.55400223      5.72836944
  O     14.72763246    -11.75216635      4.59395379
  H     14.65199332    -12.62661841      4.98281407
  H     15.31011221    -11.21134348      5.13231051
  O      4.48509621    -11.78988858     -0.62433082
  H      5.07525401    -12.14272474      0.04560979
  H      3.64667603    -11.55387937     -0.22065861
  O      3.58411065     -1.02725844     -1.71110051
  H      3.71421971     -1.28890532     -2.62554709
  H      4.42310880     -1.06070948     -1.24573707
  O      9.58449065      4.36201544      6.97537285
  H      8.71826266      4.39489607      6.56285867
  H      9.49353346      4.49052574      7.92237438
  O     -3.18777455     -2.89216742      1.46507959
  H     -2.79283158     -2.31933166      0.80365745
  H     -4.11833766     -2.67670641      1.56114653
  O     -4.65844338    -10.44119834      7.15970305
  H     -4.81939858    -10.55411887      6.22005291
  H     -3.77157254    -10.09914023      7.29407703
  O     10.49593848      1.88056741     -8.38409717
  H     10.54320829      2.82753330     -8.53450051
  H     10.45586001      1.70754413     -7.44066902
  O      3.18599250      8.13944445     -6.80284211
  H      3.96717095      7.85927873     -7.28540547
  H      2.43869584      8.18836419     -7.40347058
  O      4.80767770      6.98547794      2.58093544
  H      4.61463635      6.91411042      3.51861434
  H      4.47837022      7.82386184      2.24886764
  O      9.67082725     -3.31492404    -10.60447847
  H      9.17933089     -3.80060843     -9.93803868
  H     10.04072232     -2.51982426    -10.21384566
  O     -8.42564382     -6.22170262      1.95249367
  H     -8.24422891     -5.99263798      1.03804410
  H     -7.82175968     -5.74634857      2.52778705
  O      6.09275443     -8.10844393     -4.47812697
  H      6.24323333     -8.95841110     -4.89826018
  H      5.24688213     -8.12057910     -4.02430674
  O     16.07160829      1.97493711      3.02276804
  H     16.15924956      1.04833747      2.78754024
  H     15.15847740      2.24910094      2.91040178
  O     12.06480688     15.28937977     -3.27830501
  H     11.94183559     14.52206222     -2.71465455
  H     12.12016213     16.07969208     -2.73614059
  O    -12.24360189     -4.60900888     -5.70061025
  H    -11.71897056     -4.00414335     -5.17098807
  H    -12.94698879     -4.97901041     -5.16214415
  O     14.33241085      6.18164609      4.06745763
  H     14.16200475      5.75068528      3.22672311
  H     13.50007957      6.35432344      4.51355985
  O     -0.72261109    -14.72759414     -0.19855277
  H     -0.86640046    -14.63577478      0.74616614
  H     -0.96121218    -13.90921027     -0.64004724
  O     10.22108136    -16.20267822     -3.50417158
  H     10.13860830    -15.42570432     -2.94639944
  H     10.75900649    -15.99126010     -4.27068246
  O    -10.93507058     15.53238433      1.55284774
  H    -10.88795051     16.49121420      1.54784773
  H    -11.15524581     15.21777065      0.67299486
  O     11.39660294      2.28756661      8.45717389
  H     10.69714599      2.50401735      7.83628014
  H     12.20474731      2.09633303      7.97558028
  O     -6.45254276     -4.56120176     -5.55887303
  H     -5.74766625     -5.10979521     -5.20702883
  H     -6.73111304     -3.93014907     -4.89121210
  O     -9.18014506      2.05603441      2.18384355
  H     -8.47824730      1.86671506      1.55686850
  H    -10.01533624      2.13187859      1.71661410
  O     12.54164421     -6.63809973      1.50706273
  H     12.05991023     -5.86878440      1.19451464
  H     11.97253635     -7.16419173      2.07358144
  O      5.23946894     15.45267674     -0.25576309
  H      6.08006195     15.91529725     -0.28715830
  H      4.77167087     15.69221016      0.54759779
  O     10.07182763     -2.96453231      1.82404371
  H     10.89991424     -2.91364697      2.30703777
  H      9.33768940     -2.91786352      2.44086060
  O     -1.15446236     16.40983696     -4.96087410
  H     -0.63960501     17.16300694     -4.66211517
  H     -0.71679994     15.59733422     -4.69650521
  O      4.68285406     -4.45377925    -10.37713196
  H      3.91236532     -5.02630406    -10.38987771
  H      4.61614191     -3.81086521    -11.08692844
  O    -11.65590533     -8.69812405      3.55390173
  H    -12.04936674     -8.32306543      4.34517865
  H    -11.52609036     -8.00588861      2.90155353
  O    -11.45869927      6.27169377     -3.38468834
  H    -12.06344973      5.78459807     -3.94914795
  H    -10.55537592      6.02008063     -3.59035256
  O     -6.10867291     -4.59430046     -9.04671680
  H     -6.70227981     -5.13542540     -9.57246831
  H     -5.66906575     -3.95677820     -9.61408873
  O     17.47726704     -2.65358512     -2.87610090
  H     17.24170865     -3.25402644     -2.16505768
  H     16.85092645     -1.92652829     -2.90228948
  O     -6.51119064    -11.66945539      5.01283315
  H     -6.13388354    -10.83132304      4.73575280
  H     -5.80870893    -12.31212058      5.13571892
  O      0.46052051    -15.74746072      7.13532317
  H     -0.06092093    -15.14827184      7.67446276
  H      1.35880047    -15.78226793      7.47219345
  O     -7.79582732      0.39899386      2.90785798
  H     -7.67768952     -0.06139287      3.74193682
  H     -8.60364253      0.09652987      2.48649100
  O      1.94438275     13.83638105      7.05375053
  H      2.10705940     14.25899903      7.90023169
  H      1.00795120     13.88226544      6.84737570
  O      3.18346563     13.41434864      5.42431243
  H      3.99152328     13.42119730      5.94257486
  H      3.40144728     13.45572641      4.49030393
  O     -7.00252834    -12.83536791      6.65893336
  H     -7.61176076    -12.39908723      7.25901254
  H     -6.33650088    -13.30646849      7.16496861
  O     14.82412011     15.66756606     -3.78350869
  H     15.73080573     15.73303155     -3.47490627
  H     14.31055556     15.14742945     -3.16116685
  O     -1.40669721    -21.62250059      4.32048419
  H     -0.92141235    -20.96858231      3.81206557
  H     -2.33887402    -21.57583146      4.09583248
  O    -18.49282402      1.55418803      1.88361277
  H    -17.76733025      1.54756138      1.25495159
  H    -19.32738849      1.52315905      1.41017919
  O      0.84185512     -3.28289324     -6.64039625
  H      0.74317615     -2.52197590     -6.06344976
  H     -0.01083196     -3.70761187     -6.75930312
  O     -3.57757359     -4.39545227      2.94954304
  H     -3.20686045     -5.04938373      3.54665728
  H     -4.25932763     -3.89584750      3.40474247
  O      5.05697144     19.49666385      6.07643317
  H      5.17996576     18.69692906      6.59305360
  H      4.25236323     19.42271302      5.55803478
  O      2.60115700     -2.38575326     -5.33336586
  H      2.17066818     -1.65007021     -4.89172140
  H      3.55049683     -2.24333641     -5.34181126
  O     12.88015810      1.91651228     -3.41671464
  H     13.67300833      1.89032545     -3.95736496
  H     12.10950924      2.00577415     -3.98216371
  O     -1.16371927      3.53864778     -4.04917657
  H     -1.94904685      3.09127127     -4.37277333
  H     -1.37758469      4.45104767     -3.84087869
  O      2.87211741     -5.04442944      4.48353398
  H      3.50448992     -5.42161248      3.86754863
  H      2.81924579     -4.09556485      4.34766420
  O     10.24290855    -21.52877831      0.33077435
  H     10.62353922    -21.66330440      1.20176404
  H     10.88892698    -21.10545166     -0.23936137
  O     12.60745248     11.99607286      5.68810055
  H     12.65556188     12.44288150      6.53642097
  H     11.85068917     12.32303931      5.19616333
  O     -6.93565213    -11.08230574     -0.78861482
  H     -6.72413432    -10.61088659      0.02047368
  H     -7.42291080    -11.88159693     -0.57574728
  O      1.27755359    -21.83325980      2.72406926
  H      0.86690074    -21.92370527      3.58707787
  H      1.96228741    -21.16157554      2.76381661
  O      4.17200141     22.76055743      1.04717258
  H      3.35564642     22.40968187      1.41056062
  H      4.90427281     22.53093293      1.62393180
  O     19.27864260      8.12765987      1.01245220
  H     18.81723373      7.38959840      1.41738075
  H     18.63949291      8.76874687      0.69292889
  O    -12.40952105     -8.19004924     -5.69970005
  H    -13.25316307     -7.82963200     -5.98248539
  H    -11.84908126     -8.33294157     -6.46591740
  O     -1.07670214      0.35399341      5.83975956
  H     -0.64282125     -0.12719958      5.13138064
  H     -1.54674806     -0.26309508      6.40532002
  O    -14.96019184     13.86505208     -2.81532893
  H    -14.59077270     13.41301109     -3.57742371
  H    -14.82621962     14.81114054     -2.90789285
  O    -14.21702624     -4.75193270      5.92785405
  H    -13.65505502     -4.10744694      5.49147524
  H    -15.10104082     -4.71031811      5.55585077
  O     10.84578158    -10.15193670     -2.00543698
  H     11.42253732     -9.57601965     -2.51265722
  H     10.40568535    -10.76653974     -2.59719572
  O     -2.61396655    -21.39721755      1.16242199
  H     -1.93368407    -20.72168520      1.11270470
  H     -2.67339757    -21.72654550      2.06220589
  O     10.18047085      6.08700205      2.46140562
  H     10.00267960      5.38155623      3.08777330
  H     10.62197945      5.72610424      1.68912139
  O    -15.42527403     -6.40845176     -4.65070309
  H    -15.46061129     -6.66317593     -5.57561761
  H    -15.74384107     -7.13234547     -4.10655886
  O     -7.47146560     -6.06046767     -0.82574427
  H     -6.63492910     -6.49902816     -0.99741658
  H     -7.30754937     -5.16138869     -0.53182513
  O      3.24245021     -7.04343430     -5.68580132
  H      3.48348521     -7.95406578     -5.87087547
  H      3.10234009     -6.93443558     -4.74235634
  O    -10.48922599     18.36152115      4.69318457
  H     -9.79047717     17.70745593      4.61869455
  H    -10.19560105     19.08141488      5.25633411
  O      2.45158664     12.35064353      8.43952473
  H      1.78479846     11.71691820      8.16496012
  H      2.86779252     12.04717930      9.24963715
  O      4.26792652     -3.09269078      0.86017982
  H      4.90738277     -2.47160701      0.50387846
  H      3.56431517     -2.61074212      1.30092528
  O     -6.47500004      9.49461700      2.90362679
  H     -7.20956161      9.00973314      3.28691121
  H     -5.93420008      9.86445525      3.60530697
  O     -6.81778217     22.51660561     -0.91049567
  H     -6.00395671     22.55529538     -1.41822712
  H     -6.86230107     23.27100352     -0.31846369
  O      1.30313233     -6.60987725     -2.30294252
  H      0.40611417     -6.76144955     -1.99637397
  H      1.92450200     -6.97574866     -1.66919348
  O    -13.23136159      1.19123990      6.27891666
  H    -13.41341375      1.30636781      5.34339404
  H    -14.04446943      0.96983925      6.73873989
  O     13.73518332    -15.00354760      2.96904956
  H     14.62845872    -15.30154988      2.78235810
  H     13.64208455    -14.84003942      3.91043030
  O      3.83567927    -15.17025301     -1.78767771
  H      4.49476241    -15.29738705     -2.47400589
  H      2.95853160    -15.19625458     -2.17695383
  O     -9.29815733      4.45134160      8.96322569
  H     -9.59353440      3.68803738      8.46150958
  H    -10.05947711      4.96382275      9.24492636
  O      1.56384985    -13.56785538     -1.44466151
  H      1.97489608    -12.74199615     -1.17895952
  H      1.65740440    -13.68172619     -2.39328208
  O     -1.01104296      7.57789520      7.61725029
  H     -0.39888221      7.07021805      8.15495201
  H     -0.58037958      7.83680087      6.79926684
  O     12.33258928      1.42562875     -6.43386406
  H     13.26746318      1.60074471     -6.30369039
  H     11.98770398      0.94706713     -5.67647849