#B3LYP/6-31+G(d) OPT FREQ

3005, Energy =      0.00000000 au

0 1
  O     -5.47945735     20.93897595     -4.57183406
  H     -4.92268864     20.17119586     -4.42309831
  H     -4.93393437     21.72803651     -4.60909157
  O    -12.17699711     -8.51910564      6.98591197
  H    -12.90881870     -8.72219424      7.57310206
  H    -11.44571344     -9.11390141      7.16768710
  O    -11.59529822    -16.90147818      1.60489477
  H    -12.04237153    -16.96501921      0.75773009
  H    -11.18669962    -16.03671416      1.68754088
  O      0.04439117      3.98734298      7.23888515
  H      0.36501331      3.94197182      8.14262344
  H     -0.68255956      4.61226582      7.18775706
  O      6.82600885      0.13869563     -4.35221011
  H      6.26970579      0.24600837     -3.57721922
  H      7.74622812      0.09390912     -4.08241266
  O    -13.22238425     -5.52062706      1.77014063
  H    -12.95483376     -6.02439424      2.54230342
  H    -13.77666228     -4.78588426      2.04314042
  O      8.78255552     16.22830566      1.73799599
  H      8.19844192     15.46662929      1.72185859
  H      8.30838199     17.00244751      1.42580396
  O      6.28449482      8.41152003     -6.48710079
  H      5.66527479      7.97422907     -5.89808197
  H      6.88622480      8.95509798     -5.97324863
  O     -5.04740870     -7.93998120      1.61371855
  H     -5.56500562     -8.31103055      0.89537615
  H     -5.62321155     -7.74716904      2.35727390
  O      8.89860575     16.82567674     -5.22285991
  H      8.27170582     16.42266691     -4.61773219
  H      9.02110705     17.74879973     -4.98954171
  O     11.87028496    -10.79526974     -2.62242048
  H     11.80719252    -11.55022915     -3.21204378
  H     11.75578346    -11.08691713     -1.71498938
  O    -13.84151176      8.63560962      4.58772145
  H    -13.50283441      7.91260841      5.12079453
  H    -14.10965169      9.35783071      5.16051956
  O     -9.81354383      2.36608139      0.12164860
  H     -8.93764496      1.99507790      0.25109962
  H    -10.39620013      2.06417989      0.82233906
  O      3.83682427      0.39101531     -0.23342661
  H      3.43139362     -0.05866686      0.51156462
  H      4.65903273      0.79924813      0.04749903
  O      6.27737871     21.09944256     -1.65102466
  H      7.23019050     21.03097909     -1.55582780
  H      5.85560921     20.88429028     -0.81590790
  O     -8.88751990     11.00487600      3.42093819
  H     -8.46537879     10.53527310      2.69784069
  H     -8.42651528     11.83211139      3.57827970
  O     10.92730100     -4.55016532     -2.38405990
  H     11.32413857     -4.10545824     -1.63149391
  H     10.02658661     -4.23947767     -2.50147695
  O      8.30178743     -6.72251796      4.49499527
  H      7.44314445     -6.47940193      4.84886931
  H      8.76644281     -5.93222466      4.21015869
  O      3.86724554    -15.37657936     -1.02625686
  H      3.30053771    -14.86838529     -0.44129443
  H      4.51561486    -14.79470386     -1.42954104
  O     10.05156605     -7.63791701     -0.18558526
  H      9.59290871     -8.44086718      0.07229936
  H     10.34365798     -7.71431145     -1.09687346
  O    -13.18693433    -14.43532161      2.69302206
  H    -13.24367362    -13.64145843      3.22982921
  H    -12.63296396    -14.26564603      1.92756336
  O     -3.31728539      8.00188816      0.15249648
  H     -4.01409535      8.47524762     -0.30792365
  H     -3.11674469      7.18950584     -0.31805469
  O      0.91402214     -4.22476473      3.02825863
  H      1.58662408     -4.23583735      2.34336153
  H      0.55643470     -3.33778583      3.11192258
  O      2.28628832      7.61189673     -3.43885475
  H      2.42035839      7.74234926     -2.49725645
  H      2.99644180      7.07081928     -3.79172475
  O     -3.50862056      0.15209438      2.01988478
  H     -2.56686363      0.03841699      2.16743593
  H     -3.98530396     -0.58413080      2.41019930
  O      6.19853778      6.44806948      5.46453875
  H      5.40019520      6.65259002      4.97217662
  H      6.33542302      5.49791398      5.47272126
  O     11.94900446     12.72397184     -1.90840652
  H     11.06664290     13.10051163     -1.87296839
  H     12.58452193     13.36554056     -1.58266563
  O      2.38013788      6.39570832      1.15361331
  H      2.28179623      5.89699226      0.33923550
  H      2.32372231      7.33490704      0.96302721
  O     10.02021704     10.58933982      5.96879756
  H     10.81156553     10.05019291      6.03726787
  H     10.13593910     11.39453303      6.47857427
  O     13.34680818      0.30600773      2.74338839
  H     12.85403536     -0.24751039      3.35362820
  H     13.31829732      1.21758248      3.04308595
  O    -12.77258430    -14.81765734      5.57280412
  H    -12.13563203    -14.52113379      4.91861333
  H    -13.65785328    -14.57647867      5.29043613
  O     17.89276139      9.09746847     -0.02886512
  H     17.63251749      8.29232238     -0.48231069
  H     17.38617139      9.83691323     -0.37264996
  O     -0.86527940     -7.61303719      4.94666712
  H     -1.60256388     -7.89148156      5.49482800
  H     -0.13790780     -7.33191269      5.50657745
  O      4.03726122      2.37370373      6.89634770
  H      3.96970068      1.58813130      7.44398950
  H      3.19422859      2.53917491      6.46796087
  O     -2.17469195     11.86233579     -5.61178003
  H     -1.97859304     11.08412578     -6.13859537
  H     -2.17555578     12.63921360     -6.17574822
  O     -3.39217783    -12.56911427     -1.81186848
  H     -3.19421552    -13.01300644     -2.63973964
  H     -2.95595418    -13.02771021     -1.09006609
  O      2.27897380    -20.64624964      5.33357243
  H      1.44799853    -21.03116051      5.62153725
  H      2.19023692    -20.33040450      4.43137089
  O     -6.12797118     -4.83027035      7.88959681
  H     -6.77652897     -5.53389213      7.81285575
  H     -6.21704071     -4.22983648      7.14585909
  O      8.73062076    -18.60803349     -3.18878882
  H      8.77033062    -17.70455970     -3.51090409
  H      9.35368726    -19.15033140     -3.67797296
  O     10.93812054      0.39886821      8.37947432
  H     11.36773904      0.61198239      9.21110543
  H     11.58472741      0.41962319      7.67020090
  O      6.81055931    -19.71072481     -0.66733247
  H      6.48180489    -19.21822069     -1.42295157
  H      7.76832844    -19.65196190     -0.63860565
  O     -4.69406532     -7.73947641     -4.17775537
  H     -5.48201090     -7.56090022     -3.65924566
  H     -4.20109753     -8.45780679     -3.77453803
  O     -1.29540704      5.76537496      4.19859371
  H     -0.65992947      5.12432766      3.87175029
  H     -0.92301774      6.64778389      4.13316659
  O     12.11322930     -6.60675873      1.58557921
  H     12.56799464     -7.17046186      2.21568020
  H     11.21361208     -6.91995761      1.46643506
  O     -1.06304314      0.46175496      9.82244441
  H     -0.60104782     -0.31077643     10.15614427
  H     -0.66495683      1.25556602     10.18712411
  O      2.44051134      5.95864873      5.61973346
  H      2.33957807      6.48013859      6.41939639
  H      1.99970233      5.11310064      5.73080034
  O     11.01713228      2.00337227     -0.95970141
  H     11.56938324      2.70227258     -0.60171085
  H     11.23766532      1.17127523     -0.53475472
  O     -1.69634563    -10.28374296      8.22748740
  H     -0.87575632     -9.94713807      8.59481606
  H     -2.42546693    -10.05381043      8.80810187
  O      7.71632035    -18.22205235     -5.98612000
  H      8.25739925    -18.88382773     -5.54921385
  H      7.06489870    -17.88197109     -5.36838658
  O     14.31271667     11.64366073     -5.81119797
  H     15.08472423     12.12010025     -5.49717615
  H     13.72776428     12.24952785     -6.27201869
  O     15.57768116     -0.62811901      4.95066430
  H     16.51223135     -0.82530884      5.04726719
  H     15.34114969     -0.64475051      4.02040828
  O      2.81556499     16.84514405     -4.78198850
  H      3.34896100     17.21241237     -4.07332590
  H      2.18433791     16.22053369     -4.41727727
  O    -10.96419898    -21.82574300     -0.15297289
  H    -10.12405856    -21.55021810     -0.52693828
  H    -11.51144153    -22.20916925     -0.84225506
  O    -15.56105566     -4.26853655     -1.91963942
  H    -16.03376784     -3.61508162     -1.39892852
  H    -15.10761046     -4.87856555     -1.33325041
  O      0.09973190     -9.27956880      4.39981843
  H      1.01246769     -9.11464921      4.15219995
  H     -0.46790554     -9.14922266      3.63666863
  O     -4.30501109     13.49033357     -9.69823620
  H     -4.06643151     12.59164767     -9.93707390
  H     -5.25631973     13.54969823     -9.58383469
  O    -13.43721120      3.19470909     -4.23009697
  H    -13.86686995      3.90640678     -4.71018005
  H    -12.98147756      3.55357584     -3.46516462
  O     -3.11816687      6.83370811      4.76602287
  H     -3.78451094      6.19302610      4.50696277
  H     -2.63942433      6.50658646      5.53113529
  O      2.58429942    -19.66829597      7.65178901
  H      1.92303343    -19.52280851      6.97122991
  H      3.00928420    -18.83533317      7.86895464
  O     12.97245721     -4.88600504     -3.49394599
  H     12.72941609     -4.39017528     -4.27923821
  H     13.11912429     -4.27933033     -2.76453900
  O     -3.48076413     -4.89629961     -6.57794796
  H     -4.01210635     -4.18701225     -6.20891290
  H     -3.42920808     -4.79541600     -7.53123935
  O     -0.39744348     -6.53077867     -2.00142784
  H      0.51910216     -6.27042766     -1.88411862
  H     -0.76417701     -6.07766147     -2.76418030
  O     -8.05564411      5.84305271      2.85527282
  H     -7.66044825      6.60583306      3.28374262
  H     -8.92916555      5.68662171      3.22145534
  O      3.74809046     11.23918170     -1.46933549
  H      4.47710407     10.62212752     -1.37246808
  H      3.72676618     11.57117908     -2.36984813
  O    -16.20538545     -4.13581912      3.25101845
  H    -16.46299064     -3.26179363      2.94882810
  H    -16.09009777     -4.71539701      2.49444840
  O      6.10173769     15.55693516      1.88775476
  H      5.15457004     15.68861303      1.97222004
  H      6.31829430     15.36559540      0.97228093
  O     -7.24602232    -15.71212014     -1.19886083
  H     -8.17173000    -15.64076331     -1.44293763
  H     -6.72961922    -15.95961113     -1.96936459
  O     -5.62059987      4.44449113      1.60936176
  H     -5.06356121      3.99472769      0.96981443
  H     -6.20303128      5.05611130      1.15296892
  O      5.40441020    -13.01614366     -4.58770273
  H      6.23069819    -13.46950272     -4.77022318
  H      5.24110436    -13.01607103     -3.64169470
  O    -12.73311429    -12.11384287      6.15185144
  H    -12.02870507    -12.53497795      5.65380235
  H    -13.48756463    -12.70530567      6.20261020
  O     -2.45743170     21.79677306     -3.22525648
  H     -2.76701743     22.64220081     -3.55843602
  H     -2.62587808     21.11376662     -3.87850071
  O     11.51245063    -14.67667919      2.77775408
  H     12.38563339    -14.69344539      3.17634005
  H     11.59702939    -14.63300996      1.82248478
  O      8.62286722    -22.20969857     -2.46897171
  H      8.89244945    -22.95429329     -1.92628937
  H      8.23860789    -21.52925262     -1.91135348
  O     -6.93129163     11.66152197      8.36430947
  H     -6.24927308     11.04923862      8.64989623
  H     -7.72240684     11.17213461      8.12716659
  O      5.16455651    -14.74969446      1.22521931
  H      5.40949299    -14.39606752      0.36699200
  H      4.38100939    -14.29747212      1.54638728
  O     10.73736640      5.75580785     -0.64766054
  H     10.67713295      4.86151857     -0.30383120
  H     10.76889932      6.37837888      0.08241548
  O      8.02300628    -17.45414465      0.89167607
  H      8.49925991    -18.02097980      1.50280649
  H      7.41510165    -16.89484228      1.38079040
  O      9.43690343     10.82927573      3.17294685
  H     10.19359113     10.28094064      3.39283853
  H      9.44816588     11.62259571      3.71342494
  O     -7.99016698     -8.76562204     -1.31640148
  H     -7.46377031     -9.31584879     -1.90100140
  H     -8.60014761     -8.23744042     -1.83654359
  O     15.88339160     -5.41273503      4.71059514
  H     15.28549611     -4.67221603      4.58508578
  H     16.66308380     -5.29131250      4.16384414
  O      7.19750700     17.85707608      3.53032463
  H      8.05480036     17.75202587      3.94938614
  H      7.18495640     18.67430263      3.02675412
  O      8.24983377    -11.54247420      1.71450694
  H      8.23172780    -12.02781520      0.88642706
  H      7.68128252    -10.77191133      1.64681396
  O      6.57656781     15.80920831     -7.39416619
  H      6.50735943     15.01134434     -7.92352740
  H      5.70732329     16.20441379     -7.29503694
  O     -8.26824381    -11.61156074      8.47252682
  H     -7.74732589    -12.37645586      8.21722313
  H     -8.55996439    -11.14539418      7.68564192
  O     -8.18731279     -7.12552244      7.30101919
  H     -8.62478245     -6.27792507      7.40964239
  H     -7.78814736     -7.38912002      8.13335522
  O      6.30058650     14.20742417     -3.54590615
  H      5.53555712     13.62844686     -3.57930269
  H      7.02342396     13.81207306     -4.03865712
  O     -0.39622981     -4.31408167      1.49149972
  H     -0.99262971     -3.67718259      1.89183298
  H     -0.10824348     -3.98923061      0.63526631
  O     -9.15732620     -0.79979931      4.18019832
  H     -8.81887179     -0.60235604      3.30380527
  H     -8.42359823     -0.95092166      4.78053599
  O    -13.46680486     12.53124541      0.33907086
  H    -13.86001324     12.41002977      1.20641966
  H    -12.59779022     12.12369052      0.32139104
  O      9.31887080     13.20095720      5.72477271
  H      9.20799403     14.10178902      6.03751601
  H      8.68000436     13.02167636      5.03100902
  O     -8.20769141      9.40819445      5.54421743
  H     -9.02945915      9.03954797      5.87647870
  H     -7.71855992      9.80522734      6.26858976
  O     12.56895344     -4.38151600     -7.21088420
  H     12.82565067     -5.29049918     -7.03925639
  H     12.19313950     -3.99887150     -6.41467627
  O    -16.20916252     11.74865007      2.24348058
  H    -15.62881161     12.50737246      2.33904816
  H    -16.82396685     11.72064831      2.98025160
  O      2.97781713    -17.81507219     -1.18298739
  H      3.14605326    -18.63045154     -1.66095510
  H      2.87589973    -17.09288960     -1.80721904
  O      1.04591873    -11.21642635      0.70792671
  H      0.31531836    -11.06628856      0.10354129
  H      1.86595987    -11.27182826      0.21187918
  O     11.23136793      8.08926399      4.13252264
  H     11.28710718      7.36985563      4.76572463
  H     11.57452745      8.89306134      4.52970190
  O      5.62822489     -8.16969056     -3.42819938
  H      4.87108951     -7.80637957     -2.96306377
  H      6.18962073     -7.45387986     -3.73487473
  O    -15.57026339     -6.47656426      3.32907252
  H    -14.90802177     -6.44136937      4.02318877
  H    -16.42015938     -6.71151064      3.70864729
  O     -7.23659440    -14.58474404     -7.29731172
  H     -7.95365788    -14.26647692     -6.74402517
  H     -6.57897290    -15.02058177     -6.75033874
  O     -4.90060534      9.20439975      9.06345779
  H     -5.79550146      8.91318086      8.87384637
  H     -4.28828835      8.76755819      8.46693674
  O    -11.30264825     -5.18426349      8.82332022
  H    -12.00706309     -5.79070722      8.58326660
  H    -10.51343825     -5.39387727      8.31853347
  O    -15.64927313      9.18360506      3.31425166
  H    -15.07591585      9.51254248      2.61807524
  H    -16.55688416      9.16907876      3.00179173
  O      1.29642690      9.89096973      2.62059808
  H      1.35405127      9.73397807      1.67527641
  H      1.09936497     10.81686257      2.78025100
  O     -1.11654556      5.86756417     -1.83266593
  H     -1.41419136      6.42262627     -1.10815710
  H     -1.79104071      5.84270838     -2.51533604
  O     16.27339802    -11.38177012      5.24306055
  H     15.39075323    -11.42387664      5.61824748
  H     16.39016197    -12.10025448      4.61716408
  O    -17.06551340      2.45483428      1.16583545
  H    -16.15115299      2.25016593      0.95689549
  H    -17.55658011      2.59410351      0.35278098
  O     -6.90588889     -8.92702896     -4.13279532
  H     -6.25749541     -8.98185046     -4.83861435
  H     -7.78965032     -8.95002270     -4.50701052
  O     11.80176542    -10.45433754      5.14361737
  H     12.00866822     -9.52034853      5.06326958
  H     11.81466516    -10.86136111      4.27426968
  O     10.06686041     11.25536414      8.93648093
  H      9.34714670     11.41377904      8.32124366
  H     10.90551590     11.33738723      8.47655791
  O      2.77879872     15.93915899     -2.08589594
  H      3.20252439     15.46738524     -2.80664976
  H      2.07810523     16.49494479     -2.43479534
  O     13.21420156     14.76889304     -4.73472382
  H     13.07027712     15.03150447     -5.64682085
  H     13.58115736     13.88212108     -4.71066275
  O      0.69989054     -0.22274861      3.88727835
  H      1.31803801      0.12425140      4.53464587
  H      0.45025254     -1.11738682      4.12997848
  O     13.14348886     -4.22890935     -0.76311624
  H     13.98446550     -4.67656625     -0.88127548
  H     12.56997725     -4.76495646     -0.21054233
  O      4.42713275    -11.12936523     -1.80644814
  H      5.17469532    -11.59459858     -2.18895059
  H      3.70368936    -11.11194377     -2.43726203
  O      1.76951421      9.75424191      9.11628402
  H      2.47421961     10.21626126      8.65636182
  H      1.27416899      9.22087012      8.49038655
  O    -11.42715586    -18.38149569     -1.36206284
  H    -10.86152594    -18.09243777     -0.64226543
  H    -10.96778176    -19.04271395     -1.88490683
  O      2.39573046    -14.62586710     -3.09593776
  H      2.52967246    -13.85546710     -3.65284295
  H      2.26734735    -15.40130850     -3.64712595
  O     -5.58800058     10.38273512      2.64584429
  H     -4.88113825     10.42216506      1.99746867
  H     -6.43404090     10.48689238      2.20429356
  O     16.58086647     -3.30946817      2.04012432
  H     16.21590945     -2.55944480      1.56486509
  H     17.02947935     -3.89229647      1.42314971
  O      8.96628031     14.91201521      3.84664961
  H      8.24406667     14.36737485      3.52513083
  H      9.61183396     15.03404910      3.14667232
  O     15.23374056      4.72529349      5.72346030
  H     14.72260467      3.95224250      5.47299621
  H     14.65352753      5.48785993      5.78215676
  O     -1.63475430     10.85041490     -8.99373208
  H     -2.06167332     10.87617165     -8.13426902
  H     -2.13395097     10.27970008     -9.58253364
  O     -9.00240908      3.92370670     -4.32664511
  H     -8.64837036      3.32945698     -4.99232061
  H     -9.94716893      4.02877646     -4.46076879
  O      9.17267880      4.25912006      5.39475382
  H     10.08994152      4.09114910      5.62282150
  H      8.59950545      3.79448637      6.00891002
  O     -6.97211210    -17.76666330     -7.67131616
  H     -7.08683354    -18.39561235     -6.95517226
  H     -6.45166432    -17.02127483     -7.36288442
  O      3.21896196      5.08562254      2.91689027
  H      3.53235073      4.73074261      2.08175692
  H      2.58267125      4.47985288      3.30390094
  O     -2.59411714     -9.56372815      1.67717018
  H     -2.49607378     -9.18708831      2.55474065
  H     -1.76613983     -9.48067560      1.19846792
  O    -19.22272446      3.58521235      2.46907754
  H    -19.65939652      2.84721065      2.03748630
  H    -18.72785914      3.26589681      3.22719752
  O    -17.17154941     10.79047146     -2.23044450
  H    -18.12053092     10.71588575     -2.35482721
  H    -16.71824325     10.39607572     -2.97915374
  O     -1.98221565    -15.71513453     -4.77806241
  H     -1.36983629    -16.43105710     -4.96257909
  H     -1.79177306    -15.34554393     -3.91276801
  O      5.87375900     -1.15726095     -7.20911681
  H      6.07958286     -2.02284605     -7.56967049
  H      5.56785033     -0.58118632     -7.91350159
  O     -9.17809489    -17.08551171     -6.48805724
  H     -9.02003718    -18.03233417     -6.47601636
  H     -8.42352399    -16.63961375     -6.87971754
  O    -13.88442618     14.02944554     -3.91285318
  H    -13.54848313     14.91863889     -4.04730556
  H    -14.59420537     13.85741917     -4.53592655
  O      4.43308622     -3.15734451      3.46065551
  H      3.97387144     -2.50545620      3.99522395
  H      4.01090729     -3.22160657      2.60086755
  O     -4.69380906     21.37903424      3.39365848
  H     -3.84143037     21.17277350      3.00313694
  H     -5.26085606     21.78096182      2.73145614
  O      8.18119616     -4.13027789     -0.25093367
  H      8.60681027     -4.15062555      0.60932130
  H      7.31550673     -4.54072006     -0.18994975
  O      9.41491886      7.15159418     -1.23751054
  H      8.46458720      7.26289332     -1.15952187
  H      9.67194473      7.22807504     -2.15929597
  O      1.79012164     -1.29585992     -7.33942973
  H      2.49625035     -0.88026751     -6.83916460
  H      2.05613541     -2.18269455     -7.59312443
  O     10.55163990     -1.43469995     -5.12047217
  H     10.90113889     -0.72118355     -4.58163564
  H     10.57606240     -1.17922669     -6.04553268
  O     10.07616024     17.02340448      4.79167243
  H      9.45967922     16.43473226      5.23327880
  H     10.05822171     16.85580508      3.84658584
  O     11.54295696     -9.08621994     -0.20734466
  H     11.88628940     -9.97039661     -0.05917431
  H     12.27193456     -8.46354815     -0.25705897
  O      5.23919287     -9.83820879      5.82900497
  H      4.45019419     -9.47400859      5.42103523
  H      5.13221023    -10.78520282      5.94457758
  O     -0.54062355     12.53072741     -8.68931572
  H     -1.02204913     12.57047960     -7.85970787
  H     -1.10523590     12.83763828     -9.40249074
  O      6.95156945      6.39535120     -0.10193469
  H      6.58287293      6.88341636      0.63796752
  H      6.53597543      6.68650779     -0.91686380
  O      9.69285986    -10.55146221     -5.00607173
  H      8.97086083    -10.97704182     -5.47425908
  H     10.49933158    -11.05634540     -5.13372878
  O     -6.87800066      4.48874649      3.77917700
  H     -6.79949445      3.80349937      3.11143966
  H     -6.21741689      5.16720519      3.62130721
  O      7.19760889     -5.94844451     -4.78123921
  H      7.74977929     -5.48495465     -5.41518322
  H      6.32337960     -5.55203907     -4.76760590
  O     -5.23181453     -7.52114242      6.58443930
  H     -5.53242902     -8.11341509      7.27757999
  H     -5.25061756     -6.61657628      6.90538562
  O     -5.36542493     15.43977259      1.47038612
  H     -4.64335873     14.88310247      1.16982201
  H     -5.62284717     15.17935531      2.35780745
  O     -0.64542502    -20.00835074      4.89567931
  H     -0.75433639    -19.15636209      4.46689773
  H     -0.70892771    -20.70723257      4.24059794
  O     -1.94613374     -3.70855594     -8.92246561
  H     -1.06341177     -3.61308172     -9.28754999
  H     -2.30438556     -4.56417945     -9.16977927
  O      0.35129524      0.52101522     -7.34144617
  H      0.44519561     -0.03089263     -8.12130542
  H      0.14031615     -0.02877977     -6.58328175
  O     -9.58899262     -8.31723598     -3.85456117
  H    -10.02471709     -8.36574552     -4.70860509
  H    -10.17264841     -8.66587300     -3.17677200
  O      1.87994596     -7.35465196     -4.96458113
  H      2.14899081     -6.67086834     -5.58236332
  H      1.17738358     -7.02015030     -4.40234031
  O      9.73788169     -1.73694376     -3.30847361
  H      9.08634465     -2.30150407     -3.73081369
  H     10.30980165     -2.26931131     -2.75071708
  O     -4.48502958    -13.65696480      0.39708895
  H     -3.85283790    -13.20174617      0.95807886
  H     -4.19533495    -14.56128056      0.25605691
  O      8.95987250      1.64698806     -2.73479986
  H      9.22617000      1.78039239     -1.82217238
  H      9.30384549      0.80782870     -3.04959209
  O      4.45699303    -15.28386145      4.53090445
  H      4.23305865    -14.39242364      4.25379070
  H      4.99642551    -15.24686362      5.32415332
  O     -2.05549793    -15.28996210      2.54765901
  H     -1.67404778    -14.92319803      1.74667218
  H     -2.13147857    -16.24285588      2.45922606
  O      3.17864462     18.07574427      4.47620589
  H      3.79090198     18.54048436      5.05132115
  H      2.31718881     18.02777288      4.89714846
  O     11.46616413     18.08847224      0.42062556
  H     12.39601805     18.31536826      0.34653185
  H     11.01697077     18.30566207     -0.39952924
  O     -1.43750010      0.06376549     -2.26591275
  H     -1.49926421      0.74458322     -2.93991010
  H     -1.09759986     -0.74440484     -2.65697355
  O      9.16357056     -3.78226440      8.48142013
  H      8.47637854     -4.33872044      8.10762365
  H      9.49737800     -3.18770196      7.80564790
  O    -11.05814336    -12.32087651      1.90388760
  H    -10.29466953    -12.02085620      1.40519377
  H    -11.83299879    -12.31646972      1.33716047
  O    -12.57107486    -11.49667203     -2.94963159
  H    -12.47278990    -10.85628428     -2.24122239
  H    -11.72196532    -11.90584296     -3.13181870
  O    -14.35755727     -6.91142785      0.31255353
  H    -14.26434122     -5.97563231      0.11968707
  H    -14.47027547     -7.03408969      1.25798924
  O     11.93956213     -2.92067743      0.34223783
  H     12.28046963     -2.44034977      1.10030605
  H     11.24968334     -2.40411228     -0.08064240
  O     -1.02704428     12.00927445     -0.80534510
  H     -0.55722637     11.29809417     -1.24703927
  H     -1.60031373     12.45369544     -1.43419495
  O     -2.65865530      9.63054354      2.78482202
  H     -2.05726643      9.95984510      2.11289055
  H     -3.37825239      9.15364065      2.36488909
  O     -1.99079953     22.33320400      1.65190971
  H     -1.65998079     22.94132620      2.31700095
  H     -1.50183925     22.45499757      0.83479027
  O      5.97160697     -3.04238752      0.54398115
  H      6.59965207     -2.59476458      1.11563932
  H      5.09461314     -2.99402652      0.93146410
  O      2.25105428     21.05780342     -2.73532388
  H      2.46677891     21.70947761     -2.06421760
  H      2.80934821     20.28499304     -2.62275388
  O     17.79965179    -10.89740049      2.47620815
  H     17.84636809    -11.26536055      3.36165888
  H     16.96489166    -10.43670081      2.36426471
  O     -8.95479120     12.84857845      7.86891795
  H     -9.70814928     12.51262657      7.37780907
  H     -8.27614217     13.13939008      7.25535126
  O      6.84966135    -19.18637298     -3.85978856
  H      7.10165067    -19.89092009     -3.25836129
  H      5.94813829    -18.91365558     -3.67409687
  O     18.00194201      2.15202143     -0.21499292
  H     18.10373870      2.80835164      0.47816514
  H     18.26458660      2.53156085     -1.05675753
  O    -14.52232534     -3.34354320      4.15400935
  H    -14.28587798     -3.40777295      5.08221579
  H    -14.81226298     -2.44954465      3.95829847
  O    -15.09604796     12.11828513     -2.24326090
  H    -15.36764228     12.44354365     -3.10468033
  H    -14.27517416     11.62814231     -2.33001470
  O     -7.08199242    -21.23616983      0.66048178
  H     -6.77265415    -20.44939506      1.11533922
  H     -7.35505232    -21.89270292      1.30546442
  O     -8.01885748    -18.06479952      3.40928843
  H     -8.89119406    -17.83962591      3.07773792
  H     -7.48424073    -18.41478817      2.69284382
  O     -6.41379276      6.63633235      8.57962043
  H     -5.59562549      6.73732857      9.07155749
  H     -6.91053376      5.89459005      8.93270221
  O     -9.66630077     12.03184267      1.68271503
  H     -8.99482770     11.67300151      1.09794419
  H    -10.27349419     12.57700875      1.17703717
  O     13.49050024     -0.29550262     -1.80111719
  H     14.19761022      0.33610919     -1.65057815
  H     12.71794474     -0.03894943     -1.29225723
  O     -2.75540451    -12.78791800     -5.04243413
  H     -2.84529221    -13.70903760     -5.29750058
  H     -2.10277454    -12.71142553     -4.34256055
  O      1.02471087    -18.29814341      5.23305282
  H      0.43416071    -18.53598521      5.95158034
  H      1.88431941    -18.06227961      5.58948153
  O      3.15568306     17.77054803      0.64063818
  H      2.26304126     17.79394693      0.99311955
  H      3.68136869     18.45967013      1.05339155
  O     -1.38221531     -3.57135424     -2.25458183
  H     -1.22597145     -3.95088106     -3.12242239
  H     -1.89599926     -4.18488054     -1.72428801
  O     -9.59134661     14.44153573      2.17494670
  H    -10.53410591     14.39885593      1.99892583
  H     -9.12474746     14.67099064      1.36795495