#B3LYP/6-31+G(d) OPT FREQ

3005, Energy =      0.00000000 au

0 1
  O     14.01481569    -12.04374882     -0.01225251
  H     14.09625046    -12.95377620      0.28239737
  H     13.08620846    -11.81955474     -0.10725583
  O      5.57239801     22.78190807      2.93369249
  H      5.42353628     22.14404752      3.63552873
  H      4.73421791     23.01034359      2.52519361
  O     -0.22725234     -6.06691760      0.73491848
  H      0.65240115     -6.23589892      1.08025173
  H     -0.28670279     -5.15466204      0.44190748
  O      4.24843216      0.11397409     -7.19569006
  H      4.77600420      0.61229799     -6.56724672
  H      3.86634376     -0.65043022     -6.75831778
  O     -2.78743501      9.13123768      2.48203352
  H     -1.83875673      8.98482207      2.49514760
  H     -3.22609882      8.35770246      2.12034675
  O     -4.17850340     -9.91475357      8.44863541
  H     -4.66891857    -10.37008401      9.13694287
  H     -3.24550908     -9.90270190      8.67441486
  O      0.39174440    -20.52350435     -3.67399941
  H      0.96501625    -20.51232763     -4.44395686
  H      0.92217361    -20.43924353     -2.87829534
  O     -6.19275685     13.55278461     -3.75156897
  H     -5.48971379     13.56179091     -4.40521211
  H     -7.02943359     13.36547527     -4.18341065
  O     13.83432316     18.16752840      1.24900048
  H     13.38615146     17.59937918      0.61816882
  H     14.49033184     17.65760488      1.72986492
  O     16.46161961      6.83943518     -4.40755952
  H     15.65601650      7.06728029     -3.93778272
  H     17.14244067      6.59508526     -3.77638934
  O    -13.45550618      6.46045712      8.28086120
  H    -13.06998328      7.17653402      7.77075731
  H    -13.71714567      5.75066541      7.68981086
  O      8.27362647      1.52140157      7.59698867
  H      8.82558977      2.18071338      7.17008767
  H      7.34906709      1.74569565      7.46860592
  O     -0.20869885     13.07357452     -6.52560328
  H     -0.16766965     13.99365984     -6.79645306
  H     -0.97703986     12.65667426     -6.92239828
  O      1.87901668    -11.20138118     -4.58056890
  H      1.77564454    -10.68768458     -3.77618714
  H      1.98348335    -10.60840961     -5.32827969
  O     -7.40291401     17.49775170     -6.53310641
  H     -7.68946881     18.01754205     -5.77858382
  H     -6.75203104     16.85193284     -6.24873101
  O    -20.00575996     -2.13870179      2.22055119
  H    -19.33703660     -2.63291507      1.74079885
  H    -20.56822766     -1.67262879      1.59764988
  O      0.80089451     15.92002241      5.19881312
  H      1.65907560     16.33290268      5.31987132
  H      0.40489397     15.74669443      6.05598346
  O     11.70035632    -13.54959672     -4.49369640
  H     12.35269069    -13.69437549     -3.80442215
  H     11.05362032    -12.90702628     -4.19297097
  O     -3.41744604     -9.28908504     -7.84555451
  H     -3.54580932     -9.27637250     -6.89425999
  H     -4.26575430     -9.39637212     -8.28197469
  O      6.81928671      1.86633648      9.86721634
  H      6.17779590      1.52427020      9.24025525
  H      7.52663611      2.30905804      9.39260656
  O     12.65277952      6.53634395      0.26246475
  H     12.97595878      6.06732091      1.03523416
  H     12.33685559      5.90412867     -0.38722434
  O    -17.80577880      3.31865366      3.76851404
  H    -17.93591582      3.76983778      4.60582954
  H    -16.87797865      3.35653869      3.52489217
  O      3.90917871     17.75098715      5.04138068
  H      3.51152591     17.04872010      5.56127801
  H      3.89966607     18.56779133      5.54570245
  O     13.20012800     -2.31334486      0.78026684
  H     13.99557404     -2.60452444      0.32851464
  H     13.18516390     -2.67633398      1.66886966
  O      5.49211532    -20.53917894      5.45313206
  H      4.98970793    -19.84995172      5.89375963
  H      5.65251530    -20.28561670      4.54122305
  O      8.82981079    -12.35695511     -3.21990107
  H      9.07619045    -13.00124849     -3.88757098
  H      9.61951014    -11.93014165     -2.87959944
  O      1.04379607     -8.14471780     -0.27559714
  H      0.48931733     -7.41430158     -0.55957860
  H      1.73939598     -7.81486351      0.29793309
  O     12.26203990     16.31186461      2.30048045
  H     12.66642699     15.91628264      1.52486070
  H     11.84260993     17.14006971      2.05603248
  O     10.61908672     10.30915730     -5.69168595
  H     11.20136938      9.57085186     -5.49816082
  H      9.97226358     10.40011182     -4.98816118
  O    -12.64886842      4.11181738      3.90891445
  H    -13.36427329      4.60832046      4.31299436
  H    -12.40475688      4.52187416      3.07593005
  O     -3.58676532     -4.23557996      2.44366739
  H     -2.88968585     -4.14901065      1.78930818
  H     -4.27407464     -4.81400535      2.10509691
  O    -17.44336471     -9.72535347      0.57262909
  H    -17.78706853     -9.57485901      1.45626878
  H    -18.08305290     -9.42241276     -0.07592774
  O     -4.39885508     -4.22281123     -2.35186673
  H     -4.92038494     -4.36040256     -3.14601736
  H     -3.96887341     -3.36559352     -2.39538193
  O     11.62226737     -7.75926437     -3.92085000
  H     11.49593247     -8.69888013     -3.76998011
  H     10.77074153     -7.34089397     -4.06737627
  O      0.40068274      9.01178803     -7.00170738
  H      0.58165486      8.59359409     -7.84667065
  H     -0.53598237      8.94146403     -6.80343227
  O      2.97466853    -23.78951093     -1.59742014
  H      3.86959938    -23.44843631     -1.66350249
  H      2.73917311    -24.23217821     -2.41607000
  O     -3.12086780      4.12308537     -1.90558310
  H     -2.72697110      4.90865502     -1.51915624
  H     -2.51136310      3.73753550     -2.53918812
  O      7.97590451    -19.15027599     -1.59739397
  H      7.21071473    -18.83073167     -1.11368329
  H      8.16007396    -20.05739285     -1.34279501
  O      5.68021611      6.42703701     -7.56591479
  H      6.48496868      6.92430790     -7.72930072
  H      5.14379422      6.41494329     -8.36197088
  O     -0.80263000      4.57948998      0.87430534
  H      0.13679205      4.38617264      0.91571352
  H     -0.96025688      5.26489576      0.22087387
  O     -1.09137308      0.17213187      5.05986780
  H     -0.83854504     -0.51018767      5.68606108
  H     -1.61358523      0.84119926      5.50846930
  O    -12.49742080     -3.48760349      3.81198625
  H    -12.45200703     -3.49066920      2.85306592
  H    -12.40972267     -4.38561807      4.13982594
  O     -9.19796721     -6.45985409     -4.00969627
  H    -10.01684405     -6.96057841     -3.99192303
  H     -9.28894362     -5.71807821     -4.61226729
  O     11.55985594    -17.17991097      0.47388670
  H     12.12455036    -17.95489706      0.51989524
  H     11.60206214    -16.80459647     -0.40869909
  O     -3.46490632     -6.06167062      6.48815206
  H     -4.17134627     -6.57949057      6.09520792
  H     -2.74482301     -6.64322749      6.74285118
  O     -7.85156407     -4.22163796      5.29113187
  H     -8.50887219     -3.97516139      5.94595653
  H     -7.07567650     -4.57436236      5.73292818
  O     -7.93861837    -21.06359268      2.25032433
  H     -8.14573321    -21.90168323      2.67021441
  H     -6.98922530    -20.99307645      2.12671101
  O     -0.21644453     -0.42274359    -10.04359404
  H     -0.98063178      0.15368290    -10.11674013
  H     -0.39909938     -1.11782495     -9.40712007
  O      8.45666908    -16.31461701     -5.66817243
  H      7.60347721    -16.51113791     -6.06192764
  H      9.02629463    -15.90694016     -6.32462221
  O     16.68944061     10.92426938      2.81394727
  H     16.91961606     11.29981383      3.66693357
  H     15.81528568     11.22605680      2.55630893
  O     -4.20779817     -1.62658684      2.87879139
  H     -4.45142117     -2.40941918      2.37937036
  H     -3.31887692     -1.35619655      2.63732071
  O      4.48836881     -3.64585568      5.34523502
  H      5.14780322     -4.13805515      5.83969023
  H      3.90941358     -3.18336406      5.95557291
  O    -13.53736973     -5.19648992      2.17268714
  H    -13.11455047     -5.84780324      2.73714692
  H    -14.16396145     -4.68382235      2.68858905
  O     11.57117705     19.69027127     -4.53172693
  H     10.76110891     19.93409631     -4.07792196
  H     12.01232371     18.98969231     -4.04574469
  O     -1.29363817      4.69975899     -6.44975099
  H     -0.86883006      4.03818240     -7.00061801
  H     -1.68021357      5.37985991     -7.00618805
  O     -1.41965753     20.50232441      5.72487278
  H     -1.49631447     20.12926017      4.84365386
  H     -1.58199262     21.44777455      5.68784096
  O      4.67211128    -10.00870022      2.10914917
  H      4.83033041     -9.62810524      2.97616369
  H      4.33114788     -9.33214459      1.51955912
  O     -0.73340696     -6.92685271     -9.21701208
  H     -1.17743330     -6.25285163     -9.73678429
  H     -0.09552838     -7.38732557     -9.76717175
  O      5.24718435     18.94962696     -1.26727920
  H      5.88744016     19.66293937     -1.32073872
  H      4.35966699     19.31035404     -1.32883334
  O     -6.83205006    -10.75313614     -2.03308909
  H     -6.48295276    -11.39021112     -1.40550121
  H     -6.22278794    -10.01561916     -2.11351534
  O      3.99674332    -10.28426829     -3.55800793
  H      3.71202966    -11.02280424     -3.01477429
  H      4.28441283     -9.56321949     -2.99326473
  O     -2.35472133     -3.69709359      9.38012173
  H     -2.50613579     -3.49418440     10.30613552
  H     -1.41056910     -3.73436027      9.21045219
  O     -7.61766675      7.71262743      8.41211450
  H     -7.47514925      8.02492070      9.30864207
  H     -8.54777914      7.51037059      8.28728214
  O     16.19011973     -3.48785339      5.29256589
  H     16.39606917     -4.41560097      5.15666425
  H     16.99349578     -2.96732122      5.22022513
  O     12.50588880      3.19096139      8.69964330
  H     12.24348880      4.11413411      8.67731894
  H     12.97474154      2.97143855      7.89119613
  O      4.95559805      6.49004117      8.87253654
  H      5.23797873      6.68084905      7.97506592
  H      4.09614711      6.88792194      9.02949191
  O     15.15620318     -1.79953198      4.31122178
  H     14.42649874     -2.11758156      3.77458792
  H     15.84224481     -1.44451240      3.74121478
  O     -5.89848161     -5.71599417      4.33448655
  H     -5.32395825     -6.34470310      3.89148769
  H     -6.42130456     -5.24455048      3.68180208
  O     -6.02488206    -22.86680967      3.05119531
  H     -6.40370842    -22.39276711      3.79508659
  H     -6.70150854    -23.40820516      2.63807603
  O      1.01924608     13.34462413      1.36658678
  H      1.61886866     13.99117900      1.74608586
  H      1.46974804     12.85876451      0.67190094
  O     -4.84610196    -24.81284595      1.51650774
  H     -5.69828975    -24.51515027      1.18977657
  H     -4.91571395    -25.01939401      2.45143665
  O    -17.85197542     10.53439415     -1.43017947
  H    -17.94461352     11.36893754     -1.89553473
  H    -18.04306788     10.66414030     -0.49838034
  O    -11.72736263      7.10614884     -1.43480945
  H    -11.63704781      8.00132852     -1.10000117
  H    -11.93036793      6.51151080     -0.70900338
  O    -13.18647556    -13.01963430     -2.74618919
  H    -13.33482735    -13.93784304     -2.98385376
  H    -13.39523977    -12.45693180     -3.49544442
  O      1.31667599    -14.64277742      2.18051635
  H      2.04644366    -14.43979034      2.77029208
  H      1.64237329    -14.71347193      1.28022553
  O     -6.10142619      9.85255469      0.12139523
  H     -5.93110644     10.33502917     -0.69089139
  H     -7.00462523     10.01157737      0.40519670
  O      3.96523094     14.46777104      2.94462027
  H      4.47436052     15.03543224      3.52784221
  H      3.83072801     13.61502904      3.36454889
  O     -9.92598374    -16.81635015      1.85053554
  H     -9.31983699    -16.42710412      2.48510126
  H    -10.36068403    -17.57521630      2.24646209
  O     -4.02846864    -11.30362985      2.90744612
  H     -3.99899819    -12.14668381      3.36569443
  H     -3.14896783    -11.07703530      2.59642645
  O    -12.79737235     -4.21922011     -5.98566094
  H    -12.98490670     -4.13162467     -5.04824006
  H    -12.85806366     -3.35847066     -6.40640665
  O     12.09049096    -12.11862740      1.86063350
  H     13.01359497    -12.38175065      1.87629036
  H     11.90552821    -11.55350550      2.61430852
  O    -12.93685744    -12.81997707      1.86500720
  H    -13.20178064    -13.20443565      2.70382023
  H    -11.99927902    -12.97141642      1.72496136
  O      6.22485609      3.89667001      7.70502554
  H      6.01685937      3.37803640      8.48563847
  H      7.17664877      3.99865643      7.63229674
  O     -4.44333508      8.73874312     -1.01788137
  H     -5.26936128      8.44013552     -1.40532712
  H     -4.46383380      8.59450375     -0.06900055
  O      0.58888971    -11.87816612     -6.19079147
  H      1.22034796    -12.60100262     -6.17161163
  H      0.13730915    -11.82462985     -5.34532776
  O     -7.33519951      7.74194580     -0.36206741
  H     -8.04736892      7.10047003     -0.41613742
  H     -7.24610343      8.19361384     -1.20447935
  O      1.17246894     -0.10101396      7.68825529
  H      0.89112692     -0.89858694      7.23402625
  H      1.81548153      0.36505596      7.14889118
  O      8.08431449    -13.73860162     -6.63673494
  H      8.27336435    -14.04235498     -5.74589598
  H      7.73206820    -14.46570272     -7.15523907
  O     -7.43500858     -1.06073380     -1.73354432
  H     -7.19563873     -1.00821202     -2.66173802
  H     -8.27983204     -1.50804174     -1.64528935
  O      7.23689581     -0.61206848     -3.22966596
  H      6.94671761      0.18291511     -2.77645771
  H      7.93428706     -1.03373774     -2.72228001
  O     -7.66509480     15.23177858      0.06134772
  H     -8.04021265     14.35235735      0.14797853
  H     -6.85008623     15.18419884     -0.44372377
  O     10.74519710    -18.53786407      4.49857487
  H     10.83608542    -18.25482243      3.58576233
  H      9.81623248    -18.66802471      4.70273889
  O    -14.78952971     -0.37587742     -1.50151837
  H    -14.15473594     -1.07947714     -1.65509023
  H    -15.34046581     -0.60016817     -0.74801782
  O      4.28131674     -8.00316547     -4.80993527
  H      4.07878082     -7.28684212     -5.41612011
  H      4.11172958     -7.71819411     -3.90902933
  O    -11.70887820    -18.38973685     -0.61100351
  H    -11.00810462    -18.03967107     -1.16595427
  H    -12.42800817    -18.70475792     -1.16346511
  O     -5.11329376     -4.79054845     -5.22178740
  H     -4.28850736     -4.74745844     -5.71114479
  H     -5.84895950     -4.63945052     -5.81975507
  O      0.24472221    -16.17044965      8.23372240
  H      0.23874336    -17.03315956      7.81265724
  H      0.57254874    -16.25459322      9.13208181
  O     14.66399839      6.15471942     -0.57377227
  H     14.71804550      6.65528001      0.24361259
  H     15.11236622      6.63484008     -1.27380831
  O     -6.76650677    -14.34680245     -7.29917094
  H     -6.30862214    -15.08289751     -7.71160970
  H     -7.30761497    -14.67095437     -6.57548077
  O     -5.09897585     14.53359374     -7.13852745
  H     -5.09188732     15.30458314     -6.56657895
  H     -5.29724448     13.75102285     -6.61903505
  O      2.81916635     -9.83389390     -1.65818574
  H      3.50898549     -9.40943457     -1.14283747
  H      2.25958305     -9.16401262     -2.05784261
  O     -2.84221922    -18.05029250      1.77926267
  H     -2.21249683    -18.57466250      1.27917686
  H     -3.45359858    -17.62208531      1.17556250
  O      6.78447427     -9.62451410      6.94423640
  H      6.50199618    -10.37303303      6.41364659
  H      7.19315046     -8.96609312      6.37760990
  O    -12.85884561     -1.87241161     -3.00044246
  H    -12.59121211     -2.45896024     -3.71173215
  H    -12.84426588     -0.96426337     -3.31133505
  O    -13.68186220     -0.89786018      1.30445877
  H    -13.49867719     -1.27195714      0.43953408
  H    -14.43409683     -1.34815516      1.69558215
  O     -0.74384567     -2.73156509     -4.86361952
  H     -0.23286960     -2.14177109     -4.30447151
  H     -0.14843332     -3.26701400     -5.39312742
  O    -16.38885280    -11.86561388      0.92581830
  H    -17.34034735    -11.84117958      1.05096255
  H    -15.95181180    -11.80324071      1.77828809
  O     13.07004773    -12.16198161     -2.21216279
  H     12.51059182    -11.62353233     -2.77668158
  H     13.70904150    -12.63423878     -2.75092075
  O     -0.92258482      2.53147248      7.89127845
  H     -1.56206160      3.14978864      7.53023194
  H     -1.22749686      2.21750521      8.74570996
  O     -3.94228098     16.96530478     -6.74743999
  H     -4.63995879     17.52255121     -6.39484661
  H     -3.23401418     16.89254551     -6.10349571
  O      8.65111208     -8.95006786      4.13319261
  H      8.41571704     -9.69325778      4.69342285
  H      8.11612191     -8.18871807      4.36926889
  O      3.01792410     -0.01012197      1.04879296
  H      2.84326009     -0.45621253      1.88071586
  H      3.00131238     -0.64934801      0.33275237
  O    -13.14059260      6.36006584      2.55528058
  H    -13.14032820      6.43128260      3.51263533
  H    -12.46810598      6.94004649      2.19061060
  O      4.41760445     -7.14438647      9.78652108
  H      3.60573907     -6.63363344      9.82659539
  H      4.40481333     -7.70595498      9.00801148
  O     -6.23127231      7.34713923      6.69770973
  H     -6.25470587      8.30616417      6.66134984
  H     -6.22351430      6.99272402      5.80556082
  O     11.20443555     -4.65265249     -5.94561157
  H     11.80236629     -5.39233440     -6.07580182
  H     10.37757966     -4.97029727     -5.57546144
  O     -5.33314391      6.23126445     -9.09486587
  H     -5.04634221      6.48068011     -8.21331235
  H     -5.04608975      5.33483912     -9.28360257
  O      1.45699629     19.25213267     -2.49550142
  H      0.90452885     19.79126136     -1.92478257
  H      2.30499469     19.10157932     -2.07143492
  O     18.53465081      4.92240954      3.32868859
  H     17.63819613      5.25471134      3.41554774
  H     18.53610144      3.96969513      3.44672739
  O      3.63151910      8.45504221      3.57257116
  H      4.39390536      8.71114651      4.09676366
  H      2.91028274      8.20729830      4.15570156
  O      7.65091317    -14.36752451      0.30035573
  H      8.39218354    -14.83997886      0.68623800
  H      7.02643862    -14.99687427     -0.06781600
  O     -9.91718183     -2.69264748      6.66318119
  H     -9.14307268     -2.15436228      6.48261522
  H     -9.91335197     -2.96042202      7.58507171
  O     15.63770856      4.00177295     -5.28043204
  H     15.86415283      3.20980034     -5.77348618
  H     15.28457111      4.66277138     -5.88041122
  O     -1.49734381     22.43080481      0.14154818
  H     -0.79033348     22.77814663      0.69026491
  H     -2.19621090     22.08397956      0.70092019
  O     -8.27682514     -7.01421519     -8.34649479
  H     -8.35974310     -7.88456406     -8.74300136
  H     -8.39633452     -6.34194233     -9.02130344
  O     -6.21905573     -1.89783744      6.79110918
  H     -5.82231517     -1.99220877      5.92203439
  H     -7.13795326     -2.17344900      6.75553376
  O     13.30939971      4.26598753      0.22761903
  H     12.99088035      3.41638867      0.54119072
  H     13.40111512      4.24112031     -0.72766622
  O    -11.81181610    -11.11717081     -1.25513943
  H    -11.58327233    -10.39109582     -1.84010342
  H    -11.69048344    -11.95045754     -1.71612925
  O      2.72877207    -22.24119015      5.29835451
  H      2.34089922    -21.56589010      4.73699500
  H      3.11273092    -22.93063644      4.75169245
  O    -15.85543767      4.82874729     -5.79344307
  H    -15.68075532      5.65266734     -6.25414018
  H    -16.59178972      4.37722782     -6.21238917
  O      6.86765777    -19.86171647     -3.16675812
  H      6.29713128    -19.14416543     -3.45174940
  H      7.61621258    -19.93233810     -3.76364863
  O     -7.52433370     -5.57362275      1.53505429
  H     -7.67579615     -6.06065258      2.34835686
  H     -7.57642007     -4.63138551      1.71133815
  O     -4.49405310      9.85152310      6.84262611
  H     -5.25800922     10.04786945      6.29543404
  H     -4.77608959      9.37815089      7.62873945
  O      0.20813972      3.38338060      6.44180423
  H      0.10655559      3.48282840      5.49238820
  H      0.70323598      4.12811908      6.79086624
  O    -15.34881060     -4.78964843     -3.92298307
  H    -15.82865748     -5.26521352     -3.24093848
  H    -14.43062217     -4.69232933     -3.66019228
  O      3.64577960     15.37273483     -1.77934704
  H      2.92323482     15.43930681     -2.40791462
  H      4.41895543     15.00928787     -2.21718884
  O     11.15151037     -9.52131751     -1.97844423
  H     10.82004635     -9.61883748     -1.08277606
  H     10.68332074    -10.12402511     -2.56080325
  O    -11.69264934      0.57748123      5.27333772
  H    -12.16693809      1.39248039      5.45341150
  H    -11.55982667      0.48641485      4.32694190
  O     -0.39577909      6.70297641     -3.88401982
  H     -0.14904116      5.84734021     -4.24263813
  H     -1.34680418      6.81600069     -3.95017718
  O      5.03638291     13.94777813     -4.24650634
  H      5.54565203     13.20784239     -4.58523937
  H      4.73691791     14.49237583     -4.97817161
  O     -0.98637135      3.92009077      9.81463077
  H     -1.42406203      4.61313346     10.31434940
  H     -0.54678388      4.30357239      9.05219736
  O     -0.68269418    -13.99296569      1.09253976
  H     -0.04213364    -13.63615441      0.47288832
  H     -0.47976659    -13.68202578      1.97782885
  O      7.76926548      1.96393694      5.48498532
  H      7.39370726      1.08747667      5.37374946
  H      8.00634431      2.32230117      4.62651650
  O    -11.87823428     15.99329928     -0.65019931
  H    -11.81099726     16.38443047     -1.52432492
  H    -11.10613384     15.44788245     -0.48292292
  O     -8.04947448     -3.82888623     -0.25897293
  H     -8.36646056     -3.45716303     -1.08537580
  H     -7.67725434     -3.13061691      0.28460055
  O      6.37161943      7.66175051      1.98943821
  H      6.68405330      6.75925423      2.08683199
  H      7.12125273      8.26142203      1.98280634
  O    -11.50018569     15.23411342     -5.65907187
  H    -12.23528454     15.19479899     -5.04288679
  H    -11.83651005     15.32115046     -6.55400789
  O    -10.80323628    -14.03251229     -4.51324889
  H     -9.96723276    -14.48776104     -4.38896414
  H    -10.71665676    -13.39140340     -5.22253260
  O     -1.38558160      3.39656311     -4.77903834
  H     -1.22482463      2.68323301     -5.40106517
  H     -0.90902602      3.22423788     -3.96368639
  O      8.08066077     19.65080939     -3.43904098
  H      7.17453549     19.50762707     -3.72194698
  H      8.55530540     20.13641246     -4.11764407
  O     -7.57250962     -9.70349564      0.29427769
  H     -8.52223882     -9.75199985      0.16289352
  H     -7.36637808     -8.96623306      0.87354765
  O      8.94842236     -1.34095780      9.19132125
  H      8.00734831     -1.19117579      9.30770420
  H      9.28105385     -0.76624152      8.49802658
  O     -1.53402444     11.03854594     -0.11357003
  H     -0.95266327     11.60920747      0.39433213
  H     -1.94101394     11.54382882     -0.82113542
  O     18.16375357      3.54157726      0.03627582
  H     18.35045975      4.42810562      0.35377899
  H     17.75882406      3.02812425      0.73912581
  O     18.41755557    -10.11724339     -1.13036231
  H     18.06226348     -9.89561720     -0.26650505
  H     18.78452928    -11.00405331     -1.10803597
  O      0.69646176     -3.29712312     -8.44081530
  H      0.13414234     -3.41403246     -9.21005458
  H      0.32261910     -2.62160314     -7.87027659
  O      5.14478698    -13.97662898     -1.50622695
  H      5.05926003    -13.03092121     -1.36508179
  H      6.01807316    -14.17099137     -1.85435697
  O     -5.68055916     -8.58408914      8.40700314
  H     -5.53655491     -8.49832490      9.35225828
  H     -5.01489465     -8.07905562      7.93431729
  O    -14.95603716    -11.22354688     -2.33416457
  H    -15.52120246    -11.59860354     -3.01351771
  H    -15.49438455    -10.93012519     -1.59545908
  O     -7.23313015     10.17491580      5.21272092
  H     -6.60079056     10.69529031      4.71176482
  H     -7.23081088     10.46261206      6.12859509
  O    -10.45019739      4.06180340     -5.28933001
  H    -10.34219479      3.54956687     -6.09403441
  H     -9.69996435      3.91024320     -4.70986483
  O     13.52164193    -15.62059590      0.83032841
  H     13.33631497    -15.80918335     -0.09254140
  H     13.58732110    -16.44439959      1.31882993
  O     12.57580906     -0.89108705      4.18925754
  H     12.12989709     -0.22318020      3.66326994
  H     12.18738643     -1.75085103      4.01168004
  O     -5.82409519      9.09066258      2.15606806
  H     -6.09923075      9.81857227      2.71824945
  H     -5.37313376      8.42925145      2.68594456
  O      9.27642759     -4.19246063     -0.07631738
  H      8.44443466     -3.71616752     -0.12664279
  H      9.63857222     -4.11220399      0.80912609
  O     -8.33885733      5.48474709      1.72104548
  H     -7.70505194      5.79054982      1.06807120
  H     -9.21540229      5.46105359      1.33026734
  O    -14.36862502     11.68662298      0.45906905
  H    -13.48551442     11.36473666      0.26386435
  H    -14.35190779     12.19415092      1.27376895
  O      5.37466977      3.02144531     -9.28236707
  H      5.47356991      3.25634258    -10.20791665
  H      4.95012242      2.16320848     -9.21316375
  O      9.54667161      5.41517503      6.30169712
  H      9.15912091      4.85805951      5.62270761
  H      9.14615193      6.28698487      6.26805785
  O     15.74174316     -9.96139577      0.76618257
  H     15.83486735    -10.52113558     -0.00816827
  H     15.32759784     -9.13266449      0.51461127
  O    -10.69213820      9.55658919     -2.16343556
  H    -10.84369846      9.85146217     -1.26250303
  H     -9.90956120      9.98785986     -2.51440400
  O    -14.22473991    -11.38443153      0.31432945
  H    -13.96856002    -10.76819743      1.00442177
  H    -13.73700279    -11.18717467     -0.48866634
  O     -1.28918576     11.16728773      5.66857841
  H     -0.51106651     10.65226010      5.89413768
  H     -1.95622702     11.05517434      6.34981738
  O      6.96849589    -13.27947269     -3.80132152
  H      6.80899193    -12.63961757     -3.10365117
  H      6.13726937    -13.68226656     -4.06289288
  O     -8.34346522      2.76779018      1.76686583
  H     -8.88936270      3.48823046      1.44350576
  H     -8.49970451      1.98380671      1.23530284
  O    -14.64393328     -2.37756032      4.24241531
  H    -14.93921070     -3.10119100      3.68494792
  H    -14.30999175     -2.72751207      5.07164196
  O      3.53304359     -6.36793276      4.01287539
  H      3.93824392     -7.04221896      4.56310336
  H      3.12679847     -5.70058910      4.57074397
  O    -16.66567362     -5.11000884     -0.92758433
  H    -16.45415897     -4.65837840     -0.10728469
  H    -16.16602293     -5.92798534     -0.98109739
  O      3.02973753      5.93769179      3.76242720
  H      2.42019486      5.37458287      3.27976161
  H      3.51746200      6.48633286      3.14378528
  O    -18.12150385     -0.00207586      0.81409289
  H    -18.44673371     -0.34703872     -0.02066826
  H    -18.82304729     -0.03288171      1.46868269
  O      0.30580079     -8.11302542      2.82767289
  H      1.03961476     -8.13278023      2.20902370
  H     -0.49784485     -7.86683958      2.36383431
  O     -6.74592484     12.88872825      5.96933628
  H     -7.17437801     13.24811869      5.18903737
  H     -5.99556270     12.35179375      5.70427404
  O     -8.18022509    -12.54737734     -3.10268219
  H     -8.94997088    -12.27651752     -2.59698824
  H     -7.46329928    -12.76580402     -2.50275955
  O      2.81597792     -3.77971640     -9.46193539
  H      2.07111516     -3.70737358    -10.06322233
  H      2.61457402     -4.42276508     -8.77817748
  O     -2.76773459    -14.39404896      4.58102602
  H     -3.55983417    -14.35510599      4.04004385
  H     -1.99252127    -14.31492788      4.02032631
  O     -5.00538343     -7.05910273     -5.04178552
  H     -5.87103022     -6.64464897     -5.06377887
  H     -4.61556007     -7.03370426     -5.91870779
  O     -6.41933536     -2.95271253      2.98386168
  H     -6.66145249     -3.25212363      3.86325482
  H     -6.00393862     -3.67252447      2.50332415
  O     10.18882660     -9.45726369     -8.46650422
  H     10.28825450    -10.31811544     -8.05340817
  H     10.63893132     -8.79425313     -7.93789970