#B3LYP/6-31+G(d) OPT FREQ

195, Energy =      0.00000000 au

0 1
 Au     -0.00000027     -0.00000021     -0.00000207
 Au     -0.00000027     -0.00000021      2.78370580
 Au      0.00000072     -2.48982370      1.24491098
 Au     -2.36796282     -0.76939892      1.24491098
 Au      2.36796228     -0.76939892      1.24491098
 Au     -1.46348100      2.01430989      1.24491098
 Au      1.46348206      2.01430872      1.24491098
 Au     -1.46348161     -2.01431220     -1.24491135
 Au      1.46348107     -2.01431220     -1.24491135
 Au     -2.36796442      0.76939967     -1.24491135
 Au      2.36796488      0.76939662     -1.24491135
 Au      0.00000133      2.48982517     -1.24491135
 Au     -0.00000027     -0.00000021     -2.78370994
 Au     -0.00000027     -0.00000021      5.60588488
 Au      0.00000173     -5.01405688      2.50702889
 Au     -4.76865092     -1.54943083      2.50702889
 Au      4.76865038     -1.54943083      2.50702889
 Au     -2.94718722      4.05645802      2.50702889
 Au      2.94718991      4.05645567      2.50702889
 Au     -2.94718845     -4.05646224     -2.50702543
 Au     -4.76865415      1.54943276     -2.50702543
 Au      4.76865561      1.54942661     -2.50702543
 Au      0.00000296      5.01406026     -2.50702543
 Au     -0.00000027     -0.00000021     -5.60588902
 Au     -0.00000027     -2.60015485      4.20713395
 Au     -2.47289428     -0.80349218      4.20713395
 Au      2.47289374     -0.80349218      4.20713395
 Au     -1.52833282      2.10356908      4.20713395
 Au      1.52833228      2.10356908      4.20713395
 Au     -2.47288939     -3.40364632      2.60015373
 Au      2.47288885     -3.40364632      2.60015373
 Au     -1.52832980     -4.70372283      0.00000511
 Au      1.52832926     -4.70372283      0.00000511
 Au     -4.00122485      1.30007614      2.60015197
 Au     -4.00122633     -2.90705846     -0.00000179
 Au     -4.94578612      0.00000132     -0.00000065
 Au      4.00122431      1.30007614      2.60015197
 Au      4.00122579     -2.90705846     -0.00000179
 Au      4.94578558      0.00000132     -0.00000065
 Au      0.00000137      4.20713560      2.60015291
 Au     -4.00122569      2.90705892      0.00000335
 Au     -1.52833191      4.70372172     -0.00000074
 Au      4.00122515      2.90705892      0.00000335
 Au      1.52833137      4.70372172     -0.00000074
 Au     -0.00000287     -4.20713771     -2.60015431
 Au     -4.00122884     -1.30007568     -2.60015041
 Au     -1.52833330     -2.10356706     -4.20713914
 Au      4.00122830     -1.30007568     -2.60015041
 Au      1.52833276     -2.10356706     -4.20713914
 Au     -2.47289157      3.40364784     -2.60015326
 Au     -2.47289546      0.80349567     -4.20713665
 Au      2.47289103      3.40364784     -2.60015326
 Au      2.47289492      0.80349567     -4.20713665
 Au     -0.00000027      2.60015737     -4.20713628
 Au      2.94718791     -4.05646224     -2.50702543
  C     -6.18043373    -11.13546090      4.35953551
  C     -5.20939230    -10.24627073      3.89813501
  C     -5.39270380     -8.87200038      4.05159654
  C     -6.54696579     -8.38677237      4.66641812
  C     -7.51806322     -9.27588470      5.12785078
  C     -7.33467583    -10.65015013      4.97435042
  H     -6.03581512    -12.21877969      4.23850386
  H     -4.29956684    -10.62913457      3.41349652
  H     -6.69179761     -7.30344877      4.78755969
  H     -8.42792838     -8.89325725      5.61249954
  H     -8.10003028    -11.35094025      5.33801879
  C     -4.32082170     -7.89054088      3.54227747
  C     -3.48475364     -7.12500245      3.14500859
  H     -2.74000437     -6.44307928      2.79113105
  C      2.82321217     -5.26515490     11.76220376
  C      2.36918850     -4.64015298     10.60043521
  C      3.11948307     -3.61766254     10.01962209
  C      4.32378662     -3.22006774     10.60043521
  C      4.77789211     -3.84501021     11.76220376
  C      4.02753423     -4.86749955     12.34295959
  H      2.23166452     -6.07117424     12.21996680
  H      1.41974981     -4.95383951     10.14282347
  H      4.91552017     -2.41403769     10.14282347
  H      5.72726316     -3.53149717     12.21996680
  H      4.38540807     -5.36007530     13.25861475
  C      2.61827926     -2.92780816      8.73724322
  C      2.22734028     -2.38972172      7.73698768
  H      1.87910126     -1.91040730      6.84598416
  C      9.62647625     -4.50659609     -7.94923930
  C      8.64723120     -3.98160938     -7.10547445
  C      8.53848331     -2.60116170     -6.93721680
  C      9.40887647     -1.74558963     -7.61263127
  C     10.38815340     -2.27048273     -8.45641736
  C     10.49683706     -3.65095133     -8.62462278
  H      9.71210347     -5.59482380     -8.08179589
  H      7.96123466     -4.65637412     -6.57317485
  H      9.32342617     -0.65728527     -7.48021746
  H     11.07422807     -1.59593137     -8.98879395
  H     11.26864774     -4.06468600     -9.28964970
  C      7.45755922     -2.02172457     -6.00584381
  C      6.61443842     -1.56976359     -5.27937287
  H      5.86340673     -1.16716765     -4.63225007
  C      7.39140147     -4.89451577    -10.01103278
  C      6.76416457     -4.82011448     -8.76704349
  C      6.47661746     -3.57666063     -8.20409437
  C      6.81623151     -2.40754845     -8.88498465
  C      7.44347058     -2.48184875    -10.12897888
  C      7.73098567     -3.72534943    -10.69186418
  H      7.61802376     -5.87479183    -10.45470383
  H      6.49657332     -5.74196491     -8.23054720
  H      6.58969427     -1.42712561     -8.44148325
  H      7.71114014     -1.56016447    -10.66562952
  H      8.22534722     -3.78394947    -11.67232408
  C      5.78426205     -3.49459102     -6.83095618
  C      5.24422482     -3.43057673     -5.75990838
  H      4.76317268     -3.37355434     -4.80584481
  C     -8.43289625      1.04116210     10.01695630
  C     -7.62738454      0.77949009      8.90828607
  C     -6.85139388      1.79752688      8.35401885
  C     -6.88080066      3.07725171      8.90828607
  C     -7.68628112      3.33901990     10.01695630
  C     -8.46224768      2.32092211     10.57116884
  H     -9.04456675      0.23855892     10.45379740
  H     -7.60444106     -0.22947528      8.47158934
  H     -6.26918664      3.88003799      8.47158934
  H     -7.70937791      4.34787033     10.45379740
  H     -9.09710446      2.52719844     11.44497423
  C     -5.96227430      1.50863601      7.13025075
  C     -5.26876102      1.28330113      6.17571162
  H     -4.65099610      1.08257825      5.32543117
  C     12.94202256      2.66618552      0.31684603
  C     11.62517985      2.23837938      0.14544525
  C     10.59356011      3.17336093      0.05975535
  C     10.87860616      4.53614431      0.14544525
  C     12.19541762      4.96404664      0.31684603
  C     13.22698805      4.02899590      0.40252748
  H     13.75516500      1.92904164      0.38438181
  H     11.40082299      1.16397374      0.07793179
  H     10.06558679      5.27349293      0.07793179
  H     12.41999439      6.03835898      0.38438181
  H     14.26485356      4.36621189      0.53761808
  C      9.14002513      2.70108852     -0.12943960
  C      8.00626782      2.33271604     -0.27701167
  H      6.99634414      2.00457871     -0.40846531
  C     -0.88271345     12.40531750      4.28139250
  C     -0.80363085     11.04644028      3.97533748
  C     -1.97003016     10.29685806      3.82232871
  C     -3.21555287     10.90598369      3.97533748
  C     -3.29473645     12.26485503      4.28139250
  C     -2.12828275     13.01437317      4.43438617
  H      0.03683264     12.99610953      4.40198509
  H      0.17842182     10.56656408      3.85478474
  H     -4.13526569     10.31535951      3.85478474
  H     -4.27664299     12.74491730      4.40198509
  H     -2.19065199     14.08537845      4.67560536
  C     -1.88268178      8.79691070      3.48450024
  C     -1.81455003      7.62695173      3.22099402
  H     -1.75385992      6.58478049      2.98626904
  C     -7.41772409    -10.23753119      2.57184414
  C     -6.66306736     -9.07341413      2.42421039
  C     -7.19164647     -7.84461623      2.81972572
  C     -8.47482779     -7.77976573      3.36287638
  C     -9.22956037     -8.94382863      3.51054943
  C     -8.70090613    -10.17259621      3.11500716
  H     -7.00093494    -11.20613652      2.26002154
  H     -5.65152551     -9.12489948      1.99598859
  H     -8.89183273     -6.81122810      3.67477909
  H    -10.24108300     -8.89257878      3.93872958
  H     -9.29572345    -11.09008102      3.23138112
  C     -6.35860233     -6.55967492      2.65674351
  C     -5.70882788     -5.55742068      2.52961739
  H     -5.13002448     -4.66463677      2.41637650
  C      7.99102497    -10.31892072      1.02168486
  C      7.17709311     -9.19882214      0.85032228
  C      5.79293069     -9.34891363      0.76465148
  C      5.22255954    -10.61899623      0.85032228
  C      6.03640958    -11.73915426      1.02168486
  C      7.42057278    -11.58897781      1.10734721
  H      9.08215029    -10.20047535      1.08920559
  H      7.62706835     -8.19771885      0.78282386
  H      4.13141345    -10.73767958      0.78282386
  H      5.58666710    -12.74031132      1.08920559
  H      8.06204603    -12.47181394      1.24240770
  C      4.89454472     -8.11249794      0.57549869
  C      4.19380365     -7.14809367      0.42795951
  H      3.56960039     -6.28902561      0.29653517
  C     -3.98818646     -3.19725891     12.41932785
  C     -3.53408590     -2.57230760     11.25756213
  C     -2.32977637     -2.96988637     10.67675042
  C     -1.57947090     -3.99236962     11.25756213
  C     -2.03348964     -4.61738037     12.41932785
  C     -3.23781768     -4.21974106     13.00008227
  H     -4.93756222     -2.88375851     12.87708978
  H     -4.12582804     -1.76628322     10.79995150
  H     -0.63002750     -4.30604350     10.79995150
  H     -1.44193340     -5.42339404     12.87708978
  H     -3.59568764     -4.71232377     13.91573520
  C     -1.82857800     -2.28002223      9.39437468
  C     -1.43764326     -1.74192818      8.39412157
  H     -1.08940801     -1.26260698      7.50312022

