#B3LYP/6-31+G(d) OPT FREQ

914, Energy =      0.00000000 au

0 1
  O      1.72556441      3.94629917      1.83996939
  H      2.17575938      4.75756742      2.08648170
  H      0.98606123      3.79706732      2.43365694
  O      1.69515701      7.55880144      0.31147968
  H      2.31553271      8.28455850      0.41153309
  H      2.04912041      6.77383826      0.73591191
  O      9.22719481      1.22124953     18.85009809
  H      9.66544082      0.52483918     19.34462116
  H      8.68412688      1.74362457     19.44491028
  O     -2.86140694      8.16841704     -2.25468136
  H     -2.39371228      8.96199037     -1.98430554
  H     -3.20322649      7.71790426     -1.47892518
  O      5.85266097      7.80679396     23.62304589
  H      5.77680884      7.43076739     22.74301721
  H      5.24902175      7.35536018     24.21754335
  O      5.32737682      9.57307525      6.09891718
  H      4.69979321     10.29939270      6.08471250
  H      5.18487230      9.04177308      6.88568936
  O      4.47126991      6.97994629     12.47967430
  H      5.41921566      6.93114545     12.33608690
  H      4.12001308      7.75717536     12.03906834
  O     11.32003507      9.08539171      8.72876757
  H     11.29404931      8.45060898      8.00906233
  H     10.95489398      9.92199772      8.43150950
  O      5.48381330     -1.62940931     18.30237496
  H      5.53306443     -2.20866807     17.53841578
  H      6.30929973     -1.67202500     18.79059219
  O     -3.67359403      1.27202941     -1.48623607
  H     -3.46719722      1.83393852     -2.23674158
  H     -4.13337402      1.78572645     -0.81816594
  O      4.59262286     12.68644265     12.16708985
  H      4.03768237     11.92369371     12.34556987
  H      5.22785534     12.79413221     12.87876580
  O      5.83712597     -1.20809847      1.59156392
  H      5.38105911     -1.97061792      1.95511186
  H      6.52843167     -0.92962815      2.19666781
  O      7.38414492      9.36937182     17.19101577
  H      6.87255633      8.80125717     16.61039294
  H      7.62094058     10.17433892     16.72458702
  O     -2.36920213     10.87656880     11.73536929
  H     -2.69405450     11.51676926     12.37271874
  H     -2.00815547     10.11752301     12.19915244
  O      8.35398087      1.38107213     10.59466851
  H      7.92139376      0.63588928     10.17138265
  H      8.79625509      1.91454675      9.93029034
  O     -3.66081777      7.53511635      9.93254292
  H     -3.58423544      6.57955468      9.98389508
  H     -2.79553465      7.91764927      9.76958988
  O     -3.14987039      3.44506417     13.07701054
  H     -2.53789393      2.76351825     12.78964324
  H     -3.34724529      4.02940040     12.34135143
  O      2.09388356     10.48051348      7.58988232
  H      3.01290754     10.49160741      7.31262458
  H      1.58660544      9.92268881      6.99565967
  O     -0.32262562      9.20129197      6.49329649
  H     -0.10278806      8.82688868      5.63708762
  H     -1.25539251      9.42736053      6.51424743
  O     10.25853296      4.41314479     10.63234587
  H     10.84551372      4.50693694      9.87851789
  H     10.05947871      3.48413048     10.76985884
  O      2.99747292      2.72077228     -0.65947732
  H      3.16488769      3.40611185     -0.00841513
  H      2.34198874      3.03004384     -1.28899428
  O     10.39567661      2.78619668     15.37919606
  H     10.48550153      3.73150914     15.52031953
  H      9.48962711      2.52087909     15.55321009
  O     -2.41617678      4.26588894      4.73943217
  H     -2.86406975      4.91319778      5.28896210
  H     -1.82850884      3.73589173      5.28289270
  O      5.00646084      2.03040948     17.79666379
  H      5.46893166      1.58679608     17.08187158
  H      4.97335804      2.97349607     17.62033487
  O      8.64687659      6.70561719      0.62665491
  H      9.18059731      6.25504580     -0.03192510
  H      7.94345182      6.12304016      0.92228575
  O     -3.35383672      6.04956269     16.32175447
  H     -4.20496147      5.98862896     15.88189796
  H     -2.68790705      6.33684378     15.69278129
  O      8.37749459     -3.25672557     14.05256656
  H      8.04002310     -3.59835481     14.88383213
  H      9.29346778     -2.99153798     14.16333054
  O      4.56123783      7.85975331     16.41115957
  H      3.87094855      7.34437677     16.83481948
  H      5.35131128      7.32234179     16.31857011
  O      6.31562312      6.02030823     -1.83592916
  H      6.86947853      6.37790575     -1.13809809
  H      6.81825582      5.38376102     -2.34951267
  O     11.74352525      0.96222879     14.07861786
  H     10.80940857      0.84962604     13.88796987
  H     12.25758205      0.75849555     13.29386415
  O      3.97258761     -1.22349180      9.05671920
  H      4.66056437     -1.81642007      9.36772412
  H      3.45628165     -0.91192167      9.80368119
  O      9.21669878     -0.31182208      0.42324398
  H     10.14737788     -0.54460957      0.38793967
  H      9.07297894      0.32891819      1.12352715
  O      0.92989539     -3.10830282     14.92968938
  H      1.14728654     -3.66957792     14.18181816
  H      0.29175519     -2.44474146     14.65754344
  O     -2.54910215      1.01806419     16.25811628
  H     -2.44922947      0.11951610     15.93525907
  H     -3.37640687      1.09573751     16.73888000
  O     -0.17084874      1.50435035      2.41544274
  H     -0.99134914      1.12192794      2.73502404
  H      0.16286974      0.98086216      1.68319135
  O      6.97786880      7.82240103      2.48612782
  H      7.10251482      6.89661029      2.70743050
  H      6.04365266      7.99632311      2.34977787
  O      9.71145555      3.58296188      5.30444368
  H      9.73008925      2.82831243      5.89753472
  H      8.91349673      3.55215050      4.77160939
  O      9.38585686      5.31376679     21.79536360
  H      9.20540096      4.68441581     21.09325747
  H      9.03374115      6.17346221     21.55341668
  O     10.43112944      1.47383469     -1.34840075
  H      9.65518724      1.88086542     -1.74062478
  H     10.79323227      2.05592546     -0.67635025
  O     13.34680432      0.99178576     11.35121806
  H     13.76340875      0.23614656     10.93044478
  H     12.66328720      1.34259501     10.77559907
  O      3.67910388      5.68146602      4.31375968
  H      4.15718640      6.21903929      3.67810876
  H      3.04768976      5.12486775      3.85211632
  O     -2.37535036      9.42628351      2.48555792
  H     -2.35297488      8.60559178      1.98799946
  H     -1.62455662      9.97124679      2.23873046
  O     10.94404571      9.25115979      5.89471861
  H     11.35374608      8.60070218      5.31969643
  H     10.14379570      8.88282380      6.27620061
  O      4.18205935      4.72624241     15.88079099
  H      4.42066522      5.07329210     16.74347504
  H      4.81594071      4.05443412     15.61912701
  O      3.32812845      5.89327082     -1.87274557
  H      3.25574650      6.79228032     -1.54389490
  H      3.09253427      5.27701523     -1.17537591
  O      6.00247579      0.41600888     13.60427549
  H      5.21999328      0.85847715     13.26731413
  H      5.75065452     -0.19296099     14.30237416
  O      6.00469534     -0.68787696     16.29224052
  H      6.51018698     -0.34453233     17.03264087
  H      5.09961934     -0.37281193     16.34855609
  O      8.51518343      9.79500662      4.45059141
  H      8.54660519      9.03946543      5.04200514
  H      8.10775380     10.53817644      4.90147911
  O      0.14049218     -2.00531844     -0.75682235
  H      0.86579070     -1.98912048     -1.38553507
  H     -0.37907602     -2.80193178     -0.88742121
  O      2.88074312     12.08849904      5.82252628
  H      3.07769547     12.90054160      5.34987771
  H      2.89033844     11.35021350      5.20897726
  O      8.09814117      8.12468268      7.67223771
  H      7.99801432      7.27083096      7.24502364
  H      8.06701966      8.81963314      7.01066737
  O      1.83908684     -1.05145237      4.55951821
  H      2.24478068     -0.31332665      4.09888502
  H      2.17455364     -1.87637547      4.20096011
  O      7.68220391      9.91031928     21.13203024
  H      7.46643180      8.97535649     21.16181251
  H      7.15513534     10.33939575     20.45402426
  O      0.55144828      2.56700262     12.71944194
  H      0.90665170      1.67902981     12.63616642
  H     -0.37647957      2.56534074     12.47337861
  O      5.66777551      9.51336012     12.01986481
  H      6.32393433      8.87881235     12.31719415
  H      5.25689669      9.92992197     12.78095273
  O      0.44287382      3.76033658      5.30819838
  H      0.03642479      4.02463824      4.47961898
  H      1.39586576      3.85560277      5.24239027
  O      6.54554607     11.24812592      0.21333108
  H      6.16814578     11.70213707     -0.54366490
  H      6.48863377     10.29927347      0.07901796
  O      6.48231374      7.94457269      5.25654817
  H      7.31790167      7.48436084      5.36424156
  H      6.19587791      7.87910251      4.34261810
  O      3.30550235     -5.55536275      5.83078843
  H      3.49067051     -5.52669457      4.88925198
  H      2.38659537     -5.79614307      5.96947806
  O      8.96825356      6.31495736      8.73938962
  H      9.63695731      6.01389622      9.35890354
  H      8.12178539      5.92281825      8.96592561
  O     -4.81104283      3.54608276     14.19412182
  H     -4.52216754      4.46028490     14.14528010
  H     -5.33605961      3.33405501     13.41887888
  O     -2.56099873      5.08364425     -1.54549060
  H     -1.80928903      4.67395421     -1.11110988
  H     -2.69025936      4.68273551     -2.40813993
  O      7.94953812      6.36229063     11.50451430
  H      7.59270456      5.52640182     11.81364164
  H      7.77735701      7.04511886     12.15697065
  O     -1.92729641      5.14178747      2.37273872
  H     -2.78851371      5.00816616      2.77529321
  H     -1.25587367      4.70114914      2.89869439
  O      3.02257023     -3.12687280     15.47326680
  H      2.60105647     -2.30635845     15.73912836
  H      2.87452275     -3.79576357     16.14577485
  O      0.28663872     11.49934007      4.26882469
  H      1.06158244     11.99623113      3.99649860
  H     -0.33091767     11.44176331      3.53608393
  O      9.67469977     -2.02258311      9.71765129
  H      9.46154765     -2.94849412      9.85496471
  H     10.59246826     -1.86681653      9.95225257
  O     -0.48335289      2.80795380      6.93787686
  H      0.30654011      2.55534387      7.42146479
  H     -1.14488373      2.11731354      7.02150097
  O      4.55347753      6.98062436      5.56104160
  H      5.17502647      6.82190303      6.27524357
  H      3.66704679      7.06353510      5.92016046
  O     -0.13149417     -1.21731111      6.03553322
  H     -0.45539827     -0.68728844      5.30357550
  H      0.23475613     -2.03846891      5.69913969
  O      1.96525004      0.40260259     10.60883672
  H      1.50037534     -0.20724850     11.18639465
  H      1.57522075      1.27648829     10.68500052
  O     10.95547573      5.65689626      6.45353080
  H     11.18194702      6.20234835      7.21036154
  H     10.14981680      5.98771654      6.04970949
  O      8.05444588      8.24118457     -0.85324920
  H      7.46398953      8.78758548     -1.37708823
  H      8.67319347      7.79100401     -1.43298094
  O      9.14073391      2.55531768      1.68965816
  H      9.00552862      2.57080736      0.73935315
  H     10.01869752      2.88559716      1.89385259
  O     -0.38666402     -0.13533021     17.04407219
  H     -0.47892651     -0.62039323     16.22078518
  H     -0.23299827      0.79295094     16.85359664
  O     11.95639406      7.57974977     13.31347204
  H     12.06097245      7.77973454     14.24656875
  H     11.55667603      8.33018284     12.86774150
  O      1.66001462      6.87445283      5.11997902
  H      1.34137559      6.90523357      6.02503246
  H      0.92776146      6.68525159      4.52870226
  O      9.13136248      5.60897547      2.65709062
  H      8.69773783      4.95704588      3.21257012
  H      9.49312944      5.17766115      1.87947078
  O      8.66320250      1.55500022     13.02569918
  H      8.59593440      2.25827951     12.37571977
  H      8.65641629      0.70484739     12.57983583
  O     -0.31999031      0.69211240      8.85266365
  H     -0.90375616      1.10121758      9.49566473
  H      0.42240608      0.28639771      9.30636311
  O     10.41374422      2.78335416     17.46307330
  H     11.00098703      2.24659124     18.00031762
  H      9.86361334      3.32537071     18.03331367
  O      1.11659417      6.98497015     10.04089866
  H      1.68543502      6.43757885      9.49465434
  H      1.43565848      7.89032017     10.02909529
  O     -0.97607422     10.30024739     14.14889408
  H     -0.75598742     11.12441501     14.58924570
  H     -0.24770982      9.68204339     14.24328218
  O     13.45737123      0.50901489      4.79179681
  H     13.50225895      1.46566502      4.72542192
  H     12.56080070      0.24469107      5.01064424
  O     -0.63853561     -0.57374657     11.15804896
  H     -0.93437860     -0.89827189     10.30437441
  H     -0.20777313     -1.28407669     11.63916725
  O      3.49764460     -2.15088872     21.73559677
  H      3.01587076     -2.68173884     21.09708904
  H      2.90608235     -1.50272568     22.12487660
  O      4.49597914     11.49920411     14.42304455
  H      4.34953538     11.65140474     15.35952156
  H      3.82080664     10.90616130     14.08534304
  O      3.56609850      6.24382477     10.84590959
  H      2.69351229      6.37264942     11.22485222
  H      3.62130134      6.70349825     10.00492627
  O     10.09641725      0.10290528      5.21548076
  H     10.11473317     -0.78644265      4.85447550
  H     10.07117082      0.73972180      4.49754807
  O      1.94701390      1.16163278     18.48719138
  H      1.24310983      1.51025107     19.03908300
  H      2.64934064      0.81673180     19.04341118
  O      7.09423788      4.75000460     23.18262462
  H      6.64706610      4.67570292     22.33638786
  H      6.57385425      5.29993795     23.77285695
  O     13.35331483     -1.09420000      2.78642911
  H     13.60605016     -0.17734053      2.91717148
  H     13.51782832     -1.58993952      3.59189645
  O      4.61527030     11.53475964      9.93681454
  H      5.04762990     12.33748325     10.23731411
  H      4.52750708     10.92360188     10.67192256
  O      8.68046199      2.10689503     21.85330159
  H      8.01898708      2.43724114     22.46561067
  H      9.31533860      1.56593744     22.32858737
  O      3.98161545      9.81287272     17.27774309
  H      4.68051275      9.97389693     16.63961004
  H      3.13245550     10.02489202     16.88331286
  O     -0.80428413     -2.29960482     20.13220257
  H     -1.62446938     -2.47308847     20.59996273
  H     -0.92004437     -1.54365170     19.55191432
  O     -0.30679707      9.30812085     10.08152066
  H     -0.22814363      8.92333775     10.95750903
  H     -0.98495152      9.98756186     10.08967169
  O      1.53979106      8.68551803     17.94985848
  H      2.30197692      8.65234946     18.53258703
  H      0.87330565      9.26468573     18.32663689
  O      5.80340126     -0.03718486     11.53879335
  H      5.68221465     -0.08195141     10.58752590
  H      6.41840971     -0.72021482     11.81598405
  O     -1.69876548      1.90079826      4.46851403
  H     -1.92573572      1.27770708      5.16266235
  H     -0.75737309      2.08629941      4.49965405
  O      6.53418465     10.76207131     15.11310505
  H      6.23635913     10.00127929     14.60902622
  H      6.53494699     11.53939659     14.54975363
  O      7.30906342      1.47673592     16.16042443
  H      7.72341963      0.71049163     15.75696611
  H      6.99350878      2.06902658     15.47397192
  O      3.72048734      6.71349111     21.70447210
  H      3.11745757      5.96804147     21.65693338
  H      3.35133233      7.45568387     21.22024644
  O      5.82736504      7.45441379      8.06138626
  H      6.23851579      6.59371048      8.16976006
  H      5.04382710      7.50707453      8.61355937
  O      1.81229437      8.28694049     22.69197442
  H      1.11319476      8.94387070     22.72806368
  H      1.63728310      7.59701219     23.33615607
  O      0.12724961     -4.33646855      5.50332109
  H      0.35355422     -4.87858907      4.74405066
  H     -0.46832785     -4.82272137      6.07816515
  O      8.85815030      3.42203084      8.21604114
  H      8.56798616      2.52481188      8.03603308
  H      9.73086864      3.40252133      8.61551841
  O      4.36050472     10.59336254      4.07410108
  H      5.21107460     10.15136189      4.12669688
  H      4.49541558     11.54203989      4.01570293
  O      4.36997980      4.82021279     12.84542083
  H      3.71078996      4.43750663     12.26180730
  H      4.38940567      4.33117323     13.67129185
  O      5.22404163      7.21959210     -0.02236131
  H      5.31237885      6.84602786      0.85755136
  H      4.66197277      7.99697317      0.01447983
  O     10.46857848      8.27315807     15.72523527
  H     10.42387956      9.10538657     16.20167806
  H      9.65774438      8.14487503     15.22754909
  O      8.90711290      8.92227921      1.68130231
  H      8.12788116      9.00826194      1.12722211
  H      9.68637651      8.83631706      1.12726373
  O      8.49488134     -1.06625401     16.38935428
  H      8.00381684     -1.87858684     16.53278037
  H      8.74800898     -0.69108447     17.23597947
  O      9.32493927      4.15985905     -1.53447084
  H     10.19530460      4.34146827     -1.17241796
  H      9.19730932      4.67384834     -2.33517404
  O      1.00535869      0.79185899     -3.80665978
  H      0.51517206      0.19560893     -3.23586828
  H      1.41431663      1.47950662     -3.27609956
  O      4.31978105      9.12159517      9.55326610
  H      4.54757129      8.91895633     10.46356776
  H      4.99772662      9.68343363      9.17073853
  O      7.51457169     10.41070708      8.09500404
  H      7.17704895     10.12161798      8.94594816
  H      7.77959744     11.33166965      8.15147786
  O     -4.09181687      2.72854536      5.83184340
  H     -3.29835029      2.46283045      6.30238179
  H     -4.77351999      2.96918204      6.46348796
  O      8.70929815     -0.08509960      3.24276732
  H      8.57937387     -0.99713108      2.97273349
  H      7.85646687      0.34448195      3.34145116
  O      2.05881195     10.77720453     10.02961504
  H      2.71520740     11.13665723      9.42833410
  H      1.68680192      9.97511233      9.65564092
  O      4.71153684      0.41344006      2.75878946
  H      4.15692023      1.00264409      3.27535409
  H      4.25700761     -0.42198376      2.62813637
  O      6.71300532     12.61708909      5.76835510
  H      5.93600683     12.12677307      5.49003235
  H      7.21724855     12.88375286      4.99619630
  O     -4.26694752      7.87077968      2.89160626
  H     -4.76033264      8.06435043      3.69204457
  H     -4.72979200      7.20003596      2.38418351
  O      4.69116524      2.19136577     23.55173269
  H      5.24489728      1.88826796     22.82846749
  H      5.04892373      1.87380394     24.38405675
  O      4.25063250      4.81682458     -4.48911633
  H      3.55620120      4.20094828     -4.24404173
  H      4.58685022      4.59089449     -5.35946870
  O      2.10210563     -0.41854349      7.21106521
  H      1.21098173     -0.30886973      7.55087377
  H      2.73489909     -0.12372797      7.87004642
  O      2.45056001      2.56785650      3.13010820
  H      1.85274402      2.06388458      3.68708967
  H      3.04074506      3.08715903      3.68111318
  O      9.69948144      7.27789450      4.00560731
  H     10.53716518      6.81010131      3.97311907
  H      9.03119219      6.71153848      4.39832900
  O     -4.11106248      3.42937695     16.55299015
  H     -4.90083245      3.06959255     16.14260181
  H     -3.33519429      3.12406616     16.07716048
  O     -1.27320464     -2.48407923     17.73056007
  H     -0.51942338     -2.60166263     17.14781830
  H     -2.02846504     -2.96009436     17.37758509
  O      6.15795211      2.68725183      3.39519861
  H      6.70010505      1.99160943      3.77434482
  H      5.27263161      2.64020269      3.76342950
  O      6.38528532      3.88579031     13.85333561
  H      7.24950144      3.85412820     14.27014253
  H      6.37812603      4.57221986     13.18224454
  O     10.36924914      0.21339233     11.66205908
  H      9.91189863     -0.14458045     10.89767306
  H     10.73014703     -0.50592152     12.18545214
  O      6.02285796     -3.45521147      3.89815755
  H      6.52005546     -3.00624482      4.58577924
  H      6.61782516     -3.99615889      3.37376274
  O     -1.87733362      7.14214211      5.61118246
  H     -2.33078233      7.01219993      4.77506088
  H     -1.10945926      6.56742199      5.65199607
  O      1.46064929     -4.62354315     18.80115297
  H      1.79457510     -3.98310704     19.43355723
  H      1.18866979     -4.17059794     17.99961208
  O      5.12691293      6.88085002     14.37512190
  H      4.27336966      6.51137968     14.61293604
  H      5.80209351      6.20265622     14.45117687
  O      2.87866818     -3.20081026      6.58482342
  H      2.70558236     -2.62152015      7.33052060
  H      2.25148297     -3.01483154      5.88222067
  O      3.66384064      8.47289253     -3.28369735
  H      3.60515897      8.09840258     -4.16569154
  H      3.10241077      9.24956353     -3.22731768
  O      5.35797122      2.96169532     -1.99568195
  H      4.60506041      2.39401758     -1.81549509
  H      5.06312331      3.74589963     -2.46439113
  O      4.13142010     -4.28480439     10.84673525
  H      4.55229944     -5.14634865     10.89366153
  H      4.69460255     -3.67915506     10.35927817
  O     -0.41184012     10.79421081     17.06717718
  H     -0.68322341     11.68319793     16.82706674
  H     -1.00300577     10.15743490     16.65896201
  O      6.36672516     -4.09180793     17.46064493
  H      5.65488358     -4.40183202     18.02523914
  H      7.08707105     -3.76397588     18.00399376
  O     -1.61922270      6.30605864      9.60089055
  H     -1.53927151      5.68772508      8.87091013
  H     -0.84302760      6.87024500      9.62943755
  O      3.19529122      8.24579691     13.74782867
  H      2.34954890      8.69790688     13.79160663
  H      3.85747635      8.75864405     14.21697541
  O     -1.24957178     -1.92043275      7.94890695
  H     -0.69107401     -1.13984874      7.96811242
  H     -1.74563385     -1.97978654      8.76866274
  O     -1.78770432     -2.78249591     11.65082812
  H     -2.29411479     -2.05167439     11.28882210
  H     -1.63461930     -3.43691646     10.96533653
  O      6.31738330     -5.41443550      5.26644040
  H      5.68077528     -5.62047399      5.95482865
  H      7.17758051     -5.25649386      5.66231309
  O      2.98294083     -5.34183598     13.21477232
  H      2.81530958     -5.14130617     14.13850798
  H      2.15022002     -5.50647075     12.76636240
  O      9.22731962      8.13599438     19.03506511
  H      9.78841364      7.81840190     19.74633759
  H      8.41070733      8.48292335     19.40165025
  O     -0.97266780      1.63446845     18.51656129
  H     -1.43856692      2.37456025     18.12057880
  H     -1.52979570      0.85316686     18.48869865
  O      9.61703575      0.84366203      7.05191167
  H     10.44017089      1.33299711      7.11973292
  H      9.78729389     -0.09075917      7.19144370
  O      8.22291419     -2.23640241     -2.47364672
  H      8.94425090     -2.51668828     -1.90556821
  H      7.59699983     -1.71670470     -1.96399437
  O      5.55342248     11.07836105     18.30339469
  H      5.30746686     11.77435206     18.91715552
  H      5.87427981     10.31769088     18.79332475
  O     -1.46002259      4.53620325     13.21212838
  H     -0.54660086      4.82403572     13.14569640
  H     -2.03148010      5.30209750     13.30401050
  O     11.75939401      6.29756244     16.35149342
  H     10.98304235      5.73547131     16.29734853
  H     12.32163627      6.14174608     15.58912546
  O     -3.96322822      3.73852775     19.02590993
  H     -3.18293968      4.19607055     19.34747544
  H     -4.54656026      3.54302967     19.76286599
  O      9.49236720     -3.35416659      4.33768066
  H     10.37330813     -3.21936909      4.69457382
  H      8.83937616     -3.15880063      5.01372418
  O     11.05663712      0.71117629      9.42224312
  H     10.60984097      1.52495378      9.17782668
  H     10.60614288     -0.03502529      9.01995198
  O      2.29131007      1.95656520      8.58665573
  H      1.76617952      2.54163181      9.13759581
  H      2.91172000      1.47102254      9.13523556
  O      9.41299698     11.51986939     11.96724572
  H      9.82053634     10.84964334     12.52069736
  H      9.01204891     12.19307902     12.52188924
  O      1.17998281     12.24849165      6.97606966
  H      1.41739431     13.17428358      6.88581960
  H      0.46954791     12.03884946      6.36538774
  O     -1.67360519      6.44675478     18.91744957
  H     -1.02751028      5.80122397     19.21317130
  H     -2.36040660      6.00478215     18.41290618
  O     -1.27230462      5.45578067     11.37979521
  H     -1.44328508      4.61785630     10.94362044
  H     -0.33511627      5.65771534     11.32979120
  O     -0.98590590      8.13087540      8.06601217
  H     -1.47167748      8.85553333      8.46663276
  H     -1.59834536      7.54518577      7.61491842
  O     12.27490250      2.89448635      7.43303574
  H     11.55170618      3.05063895      6.82131404
  H     13.09026423      3.23676651      7.05936537
  O     -0.95807426      2.68954066     23.34414820
  H     -0.43624246      3.13315356     22.67146763
  H     -1.69193804      2.23025540     22.92929761
  O     -2.97565898     -0.38436806      7.34660696
  H     -3.74917793     -0.26482862      6.79074838
  H     -2.19589461     -0.07141027      6.88225263
  O      6.70881760      7.00748879     10.07014269
  H      6.79088368      7.86821001     10.48730469
  H      5.94833794      6.54700805     10.43239701
  O      5.02590000      5.07769436      1.98197634
  H      5.58965755      5.15597896      2.75505392
  H      4.36589155      4.39739508      2.13423185
  O      0.11657983      8.02688305     -1.37221257
  H     -0.57790046      8.01282677     -2.03485843
  H      0.05055187      7.24288891     -0.82212758
  O      4.01821526      4.62755214      6.02275638
  H      4.03164829      3.86945534      5.43393654
  H      3.12108888      4.96160955      6.09465854
  O      1.75526873      4.78138915     -3.50231882
  H      1.16243463      5.10646226     -2.82079463
  H      1.91928311      5.47728140     -4.14296948
  O      7.57098635      0.99965611      6.37315333
  H      7.98626710      0.34859622      5.80283507
  H      7.19343364      1.70089484      5.83713263
  O      3.78121579     -0.36174344     -3.35426354
  H      4.53546095     -0.59514157     -3.90037668
  H      3.02445207     -0.17668623     -3.91521140
  O     -4.32247093      0.45881184     19.92199052
  H     -3.52513717      0.37774472     19.39351441
  H     -4.61716726      1.37245676     19.91933853
  O     -0.93297349      7.79879379     14.80646032
  H     -0.99366777      7.32863490     13.97167482
  H     -1.78881582      8.17440879     15.02565721
  O      4.80333008     -0.94392199      4.71262856
  H      5.75807481     -0.95246696      4.81257600
  H      4.48352195     -1.84355253      4.61269031
  O      6.90482284      3.34028286     18.08367486
  H      6.45743989      4.13972576     18.37062354
  H      7.79917428      3.33077650     18.43245150
  O      0.98027669     -1.43096488     18.77989557
  H      1.09581130     -1.58363817     17.83918168
  H      1.79723988     -1.09086989     19.15206025
  O      4.79580191      9.24594190     21.71878372
  H      4.28428990      8.94452910     22.47317473
  H      4.24758560      9.80383879     21.16217799
  O      4.42442130     -0.02187836     -0.03107880
  H      5.38179996     -0.06443451     -0.08778047
  H      4.11533601     -0.63739087      0.63765930
  O     -4.18573464      6.19212434      6.48405232
  H     -4.46185261      5.36594500      6.88752049
  H     -3.50281625      6.59906227      7.02221959
  O     13.32181750      7.15875004      5.43700741
  H     13.18838566      6.56633936      6.18054324
  H     13.41764112      6.64541784      4.63145922
  O      1.90263379     10.27376138     20.01431516
  H      2.45034069     10.75356965     20.63993580
  H      1.57039908      9.47334944     20.42730526
  O      3.06463676      9.82909954     11.51085147
  H      2.36856116      9.18122732     11.37916871
  H      3.27867721      9.88409139     12.44506911
  O      6.27279440      5.02243290      4.94544416
  H      6.72544523      4.37230267      4.40319154
  H      6.30779589      5.87950977      4.51440570
  O      3.12912603      2.69989604     11.07194249
  H      3.40661056      3.12234364     10.25576827
  H      3.48620114      1.80956370     11.10943503
  O      7.51394637     -1.07462663     14.64186886
  H      7.07867070     -1.72989161     14.09162991
  H      7.92078878     -0.40729646     14.08441958
  O      9.91923169      3.63413015     13.12957333
  H     10.71746458      3.96529053     13.54761286
  H      9.23164786      3.52758351     13.79099324
  O      4.25859739     -0.38328229     20.72692254
  H      5.05562662     -0.62770971     20.25089770
  H      4.12743005      0.56577692     20.66624522
  O     -4.30567950      3.49165349      3.96884089
  H     -4.77848454      4.07035473      3.36621307