#B3LYP/6-31+G(d) OPT FREQ

914, Energy =      0.00000000 au

0 1
  O      5.34787114      8.41908200     -3.41508880
  H      4.64868482      8.78366401     -2.86753200
  H      6.19820402      8.58489010     -3.00151696
  O      2.62119615      1.08984152     11.80430907
  H      1.77081563      1.10764936     12.24943360
  H      3.28764721      0.74034718     12.40037675
  O      0.28197476      3.43469781      7.04607748
  H     -0.23956458      4.16892916      7.37849444
  H      1.17695884      3.73239521      6.86724863
  O      0.87228047     -0.49898915     13.53689063
  H      1.71973338     -0.69125307     13.12889780
  H      0.28341187     -0.11154993     12.88518162
  O      8.06631347      2.80649460      4.74470269
  H      7.75022830      3.71296246      4.74719028
  H      8.70378246      2.68745810      5.45256115
  O      5.45100019     -3.15732235     12.84665597
  H      4.87704732     -3.37445046     13.58491981
  H      6.20214337     -2.65012101     13.16309036
  O      6.59231068     12.20150580     12.04340366
  H      6.65370745     12.43117859     12.97350088
  H      6.79946044     12.97151860     11.50882975
  O     11.18454997      9.71107052      6.38789070
  H     10.59367132     10.20350698      5.81346163
  H     10.67889626      9.07296708      6.89655397
  O      9.64966361     11.16881624     17.72926308
  H     10.36419193     11.24279359     17.09241410
  H      8.81074893     11.32402086     17.28911119
  O     -3.30573080      3.75517737      7.55521759
  H     -3.48788781      4.69771988      7.56091311
  H     -3.69622328      3.35804528      6.77329577
  O     -0.18238807      7.45133534      6.03922373
  H     -0.41483064      8.35482575      5.81278272
  H     -0.53523023      6.85380211      5.37585622
  O      0.57189341     -2.07404608     16.78425413
  H      0.05029476     -2.87221506     16.67262470
  H      1.22429500     -2.01679040     16.08233251
  O      6.63985404      6.27905475     12.34127927
  H      6.45887505      5.35484348     12.52750528
  H      7.53268686      6.36831397     11.99998417
  O      5.40301499     -3.87397881      2.88971529
  H      5.11601984     -4.68807472      3.30981246
  H      5.52556062     -3.19489383      3.55711785
  O      6.94008061      8.88365892      5.56375479
  H      7.20071803      8.88961031      4.63983233
  H      6.80372171      9.78522482      5.86406325
  O     -2.36061336      8.00200518     19.35050978
  H     -2.23306917      7.67771487     18.45598853
  H     -2.28430258      8.95893497     19.35838699
  O      3.70020382      5.28451329     11.86290081
  H      4.28253044      4.99009610     12.56704158
  H      4.17106276      5.89649163     11.29248483
  O      0.26989997      1.02595042     21.60694691
  H      0.00780375      0.10634268     21.52193411
  H      0.94861212      1.10470151     22.28129704
  O      1.44753042      7.89502790     18.39661929
  H      0.49228684      7.98467483     18.42937804
  H      1.76747320      7.56464577     19.23928427
  O     13.48218841      2.79620557      7.45443856
  H     13.57609458      1.96939897      7.93315819
  H     13.97583082      2.74843052      6.63246853
  O      4.06290168      3.76712620     14.84549065
  H      4.06317492      2.98586744     15.40337475
  H      4.25783600      3.51443397     13.94009170
  O      2.97688911      3.77706367     16.88645660
  H      2.64975403      3.75432076     17.78871233
  H      2.86730170      4.66087716     16.52803740
  O      1.71022484      4.88142646     13.64424669
  H      2.43169997      5.51103242     13.57590947
  H      1.93910471      4.19954224     14.28005163
  O      2.70331267     10.87855542      0.72267118
  H      3.25610425     11.61778645      0.45893087
  H      3.20269659     10.06212563      0.64745090
  O     -0.28318677      5.40038248     18.68406357
  H     -0.20212498      4.61658705     18.13570811
  H     -0.63980996      6.12200041     18.16091210
  O     12.38564601      1.23414630     11.14605404
  H     13.17476888      1.54739139     10.69798864
  H     12.61230154      0.95369736     12.03575942
  O     -1.65817465      2.82896609      8.61800976
  H     -2.00516795      2.97917246      9.50041200
  H     -0.71626362      2.65094084      8.67007327
  O      7.93537434      9.49749121     18.53999481
  H      7.60393179      8.94353145     17.82944965
  H      7.46671634      9.29155117     19.35212065
  O      0.08742453      4.27881499      0.66561301
  H      0.33671091      4.61658141     -0.19773521
  H      0.85485883      3.88964721      1.09128076
  O      7.35967234      4.36446893     21.54453954
  H      8.07671291      4.44117693     22.17823403
  H      7.38395928      5.11082620     20.94124776
  O      1.67586904      6.22882658      6.47480173
  H      0.86324127      5.76592476      6.69149970
  H      1.88173302      6.09739678      5.54639114
  O      1.48433000      1.23300397      9.85011742
  H      1.90335646      0.39491485     10.05897971
  H      2.09143511      1.95145393     10.04208891
  O      5.17744634      6.37815850      9.21171919
  H      4.57163027      6.98852925      9.63837414
  H      5.70517190      5.93208983      9.87814884
  O      2.42620573      5.17823018     19.27666354
  H      2.11618528      5.63262075     18.48988750
  H      3.36576403      5.33915461     19.39038923
  O      3.30663092     -0.41011107     -2.72116305
  H      3.24613066     -0.07929526     -1.82199643
  H      3.70938091      0.25712741     -3.28168536
  O      8.93355927      0.06783340     20.36104452
  H      9.80599533     -0.28202284     20.16596521
  H      8.50832958     -0.48231535     21.02294788
  O      0.64307474      5.25799033      3.32763134
  H      1.01744260      4.41938992      3.04799219
  H      0.82100593      5.92629092      2.66181243
  O      0.40929831      3.89251418     21.96576175
  H     -0.41256968      3.57084665     21.58805416
  H      0.54503956      4.80675919     21.70628076
  O      3.05140505     -4.15917903      7.99323577
  H      2.91420401     -4.92880410      7.43605256
  H      3.19569533     -3.38633983      7.44232755
  O      9.25522841      1.96970489     23.34279508
  H     10.04600449      1.59559923     22.94742418
  H      8.48681012      1.47077928     23.05607818
  O      2.95172672      1.03009509     21.88741113
  H      2.93893649      0.46477966     22.66320420
  H      2.75756811      0.50680059     21.10634437
  O     11.74407208      4.32856004     19.68329285
  H     11.95181454      4.12081407     20.59723196
  H     10.97530256      3.82441236     19.40683573
  O      0.76425812      3.33680634     16.04659414
  H      1.03961230      2.79485513     16.78960758
  H     -0.18241470      3.24490087     15.91634838
  O      2.54148937      2.83780203     20.82240403
  H      2.16473589      2.81769174     19.93965129
  H      3.36756514      3.32664522     20.80720010
  O      6.43790027      4.12748618      2.03560567
  H      6.01058101      3.67409035      1.30524243
  H      6.00298045      4.96953949      2.18854675
  O      0.40635825     -2.96023957     19.51615433
  H     -0.51898896     -2.79068847     19.70742629
  H      0.74451349     -2.27438529     18.93576227
  O     11.17375502      8.40213566     11.70770597
  H     10.54898758      8.27250156     10.99044684
  H     12.04659682      8.11672303     11.42790815
  O      2.51020185      3.92093642      4.49211087
  H      1.64430623      3.94416545      4.90597702
  H      2.76670259      3.00899799      4.33662561
  O      4.56966375     10.67424352      7.15592036
  H      4.90094279     10.63523793      6.25573551
  H      3.71158066     11.10463860      7.16323399
  O      4.12244831      9.18565252     22.80153085
  H      3.31982237      8.76511275     23.11860799
  H      4.45069348      8.71186683     22.03381851
  O     -4.34870048      7.64393248      8.58172611
  H     -4.79732290      7.75211157      7.73992138
  H     -4.38023887      8.46981459      9.07011538
  O      7.43594447     -2.71708632      1.42504519
  H      7.07189826     -3.50586574      1.83357595
  H      7.82945425     -2.15915053      2.09992126
  O      4.75301866      3.99516909      4.37845693
  H      4.70447220      4.65261446      3.68059675
  H      5.67202471      3.77643472      4.54928771
  O      3.91965877     -3.01483157     15.38179422
  H      4.01960262     -3.61388669     16.12526191
  H      3.01130527     -2.70731329     15.33790307
  O     -2.05080505     -0.95054650      6.94434164
  H     -2.78192775     -0.75539419      7.53508285
  H     -1.34379224     -1.37249450      7.43799411
  O     -3.39167518      1.06408372      8.32080588
  H     -2.88340676      0.63133265      9.01072597
  H     -3.78366230      1.86856920      8.66829574
  O      0.36561357     10.06364882     19.60031956
  H      0.58465794     10.13262471     20.53244718
  H      0.43044529     10.92957621     19.19097055
  O      1.68898461     -3.02850410     22.19892744
  H      1.03375336     -2.34594330     22.03649973
  H      2.21080034     -3.16718364     21.40515396
  O      1.12259429     12.86065135     12.44311635
  H      0.55887108     12.46392435     11.77496679
  H      0.67334507     12.84582994     13.29138250
  O     -0.50546757     10.17925468      4.92608063
  H      0.01000134     10.89844665      5.29844431
  H     -1.40918314     10.47150397      4.78647933
  O      3.79831678      6.82156521     17.51506297
  H      4.10166374      7.46132589     16.86676759
  H      4.28044621      5.99895659     17.40341052
  O     -4.54255160      4.31805948     10.02350351
  H     -3.75241068      4.06803205      9.53897940
  H     -4.50613521      5.25377278     10.23496147
  O      1.55396845      6.60222942      9.40392352
  H      1.54252145      6.56294492      8.44479594
  H      2.23969425      6.02065655      9.74030596
  O      8.27000715      0.88706610      1.67635016
  H      8.43610320      1.52489461      0.97836241
  H      7.54196069      1.19217623      2.22266158
  O      7.09374238      0.16728468      3.92280168
  H      6.14759682      0.24673268      4.06456416
  H      7.32236657     -0.75647227      3.79629446
  O      5.79969017      6.72869479     24.07148599
  H      5.98636127      5.85039565     23.73186191
  H      5.18306124      7.17430285     23.48599284
  O     -0.74777417      7.81772537      2.27915946
  H     -1.16098867      8.63370676      2.57075533
  H     -0.30298525      7.96535866      1.44132462
  O      4.71776746      6.66408766     15.00099168
  H      3.80525625      6.37258513     14.93814609
  H      5.09431434      6.73054609     14.12042611
  O     -1.38650151      6.13461054      9.54509721
  H     -1.55156359      5.42773214      8.91686361
  H     -0.66588405      6.68371082      9.22760805
  O      3.66790497     -1.14943781      3.27936772
  H      3.75077105     -1.48042151      4.17668762
  H      4.53769033     -0.93105152      2.93675881
  O      7.24553670     -4.20795941     14.39091806
  H      6.55057983     -4.86384764     14.29901823
  H      6.92009564     -3.46631197     14.90632778
  O      9.32544378      8.27059577      4.66414469
  H      9.15931534      8.02661527      5.57764064
  H      9.24867370      9.22264803      4.56769335
  O      2.99241151     10.43883320     18.01075952
  H      2.54487137     11.25662258     17.78156885
  H      2.35046288      9.72731926     18.06776716
  O      1.38817128     -3.92193189      2.82440155
  H      1.20726097     -3.04927909      3.18126086
  H      1.96865308     -4.39860427      3.42225130
  O      8.40981572      4.29802306     -0.62766778
  H      9.26733701      4.54515491     -0.27385556
  H      7.73382204      4.87164683     -0.25944457
  O      8.82448496      2.10063190     20.32074973
  H      9.42995869      1.95284029     19.59057221
  H      9.30176256      2.48398682     21.06023949
  O     -5.20766035      5.18116778     15.08501468
  H     -5.06213129      6.05121006     14.70626975
  H     -5.35500742      4.54564415     14.38074303
  O     10.25186990     10.70542343     10.70229938
  H     10.44215941     10.11349332      9.97085653
  H      9.37506514     10.51881480     11.04579703
  O      8.87785275      8.87524490      8.67802568
  H      8.08025652      9.21120238      9.09344455
  H      9.34310450      8.30355270      9.29309384
  O      1.76506356     -0.63321108      4.41735568
  H      2.21686895      0.19161030      4.22463417
  H      1.78485280     -0.79601531      5.36324318
  O     -3.51988101      4.61916079      2.77546091
  H     -3.06634674      4.40924237      3.59511993
  H     -3.82194081      5.53005594      2.80055885
  O      7.04652363     -2.19941726     19.01091258
  H      7.42532948     -1.60367184     19.66144585
  H      7.07793713     -3.09929970     19.34381614
  O      2.44040611      0.83637412     17.72105719
  H      2.72554403      1.49323283     17.08165668
  H      2.69480957      1.11643860     18.60335123
  O      4.25625155     11.76525257     15.55774155
  H      4.44673326     12.70379049     15.62454954
  H      4.97825616     11.32315326     15.10512963
  O      0.77022478      9.24217002      7.68469244
  H      0.78036312      9.64875970      6.81510515
  H     -0.01062743      8.69049169      7.77141533
  O     -0.63079581      7.94072498     11.73960087
  H     -1.16103940      7.43995289     12.36383564
  H     -0.39117901      8.78536038     12.12789823
  O     12.59643797      7.40645490     13.34991078
  H     11.83743490      6.88318878     13.61769223
  H     13.26453007      7.37778396     14.03870024
  O      0.52725042      7.09305346     13.92509298
  H      0.35544056      7.88875555     14.43395402
  H      0.64891905      6.35102792     14.52191360
  O      6.01619638      8.16648456     -1.04593432
  H      6.58055325      8.66839779     -0.45332616
  H      5.39880101      7.64089928     -0.53194690
  O     -2.95059184      7.82592039     11.24751909
  H     -3.81664079      7.50525056     10.98535487
  H     -2.30845600      7.60607961     10.56859966
  O      2.76309569     -3.86544120     12.70950744
  H      2.39442684     -3.22444866     13.32172624
  H      2.36192091     -4.72378528     12.86411740
  O     13.82435866      5.25199307     13.56781033
  H     13.38382136      4.74704006     14.25523258
  H     13.50353373      4.97049468     12.70790916
  O      3.20292010      9.02285814     15.02571449
  H      4.09040382      9.22785891     15.32894268
  H      3.23810610      8.29597650     14.39961144
  O      5.36058724      2.89341242      8.37423677
  H      5.45395748      3.80524712      8.08886074
  H      4.44371635      2.72066955      8.60030687
  O      4.09566699     -2.51278365     -0.55136529
  H      3.67609320     -2.45614018     -1.41296227
  H      4.69188996     -3.26499396     -0.53410774
  O      5.08908101      5.58875230     21.30585726
  H      4.74644142      6.29277903     20.75038944
  H      4.35837422      5.08658652     21.67395658
  O      8.69959846     11.03730700      8.24505804
  H      9.58952517     10.71455752      8.08548602
  H      8.21685005     11.06933961      7.41588503
  O     -2.15073339      5.58689183     11.50906255
  H     -1.33417482      5.36500738     11.96249325
  H     -2.35781391      4.90242410     10.86857712
  O      8.82400173     -1.96921250     14.45045392
  H      8.98882393     -2.50043255     15.23291088
  H      9.20895869     -1.09765492     14.56790832
  O      3.68385697      3.57737446      6.07703801
  H      3.16925557      4.01294407      6.76045919
  H      4.42461310      3.11693133      6.47812713
  O     10.23962872      6.31193934     12.36404573
  H     11.04865553      5.90255041     12.04864703
  H      9.56051483      5.64139084     12.46781971
  O      1.81556301      8.00868693      1.33947935
  H      1.54252807      7.41391209      0.63712985
  H      2.77365913      8.06688569      1.35574975
  O     -0.39262500      3.18290647     13.72684901
  H     -0.17551635      3.98032121     13.23838860
  H      0.15758338      2.45886812     13.41921414
  O      7.15086675      2.66079787     -1.30433963
  H      7.79141735      2.13221262     -0.82278739
  H      6.89283466      2.19984575     -2.10592717
  O      2.50763898      6.70730108     -1.71579614
  H      3.07716431      6.91602992     -0.97170396
  H      1.61276508      6.99845055     -1.52597332
  O      8.29218932      7.56739482     21.67846794
  H      8.45961659      8.05692585     22.48712577
  H      7.45375072      7.84600535     21.30297241
  O      2.26185607      4.74612931     -2.67075256
  H      1.75485289      5.42159543     -3.12714418
  H      1.98072029      4.69905519     -1.75404829
  O      5.07755419     10.95284249     18.39772232
  H      5.58184461     10.72386591     17.61359166
  H      5.64574513     11.41014852     19.02192602
  O      4.44966553      2.94328192     18.27953599
  H      4.93590288      2.12335749     18.39310163
  H      4.72925301      3.57642779     18.94478568
  O     11.78910519      3.92052422      9.51700720
  H     11.01715258      4.12528193      8.98431269
  H     11.86505199      2.96895065      9.61869218
  O     12.62616842      1.66079260     17.75073071
  H     12.59982464      0.98378034     17.07061276
  H     12.03740275      1.41686169     18.46868105
  O      6.65281202     -1.37130715      7.99952596
  H      6.72017256     -1.65722351      8.91348132
  H      6.98929236     -0.47588858      7.91824511
  O      6.20569143     -0.82461879     -0.09400834
  H      5.90232151     -1.13830811      0.76107394
  H      7.12978490     -0.57173829     -0.03315841
  O      6.36568343      9.28628794     14.58758484
  H      6.50062355     10.10850909     14.11077927
  H      6.02904939      8.61838758     13.98576541
  O      6.83581232      0.90518293      9.45204452
  H      6.65553939      1.67480893      9.99681741
  H      6.52320532      0.11548301      9.89953856
  O     11.00339828      1.20490366      5.37990902
  H     11.15913087      1.96930227      4.82040735
  H     11.62105854      1.21448425      6.11475868
  O     -0.07038230     11.81912233     15.31104177
  H      0.40570047     12.13499426     16.08251447
  H     -0.91978740     11.46329240     15.58214330
  O      8.89684378      9.08369157     12.43032683
  H      8.18111940      9.56615834     12.85052254
  H      8.57832870      8.22552913     12.14100799
  O     -0.93863099      8.60143364     -0.80713182
  H     -1.41294455      7.85751106     -0.42870635
  H     -0.85278747      9.29502695     -0.14898350
  O     11.70037394      2.60615558      2.87420689
  H     12.49248480      2.99797340      3.24922578
  H     11.64204041      2.83056910      1.94262985
  O      6.79709212      6.03841188      6.17141113
  H      6.63512715      5.22944853      5.68054898
  H      7.03186846      6.74170599      5.56160995
  O     -1.08688063     -3.59199841      8.73221408
  H     -1.92749438     -3.44470016      9.17184090
  H     -0.48736488     -4.04419341      9.33029480
  O     10.51368913      2.47547499     17.41140668
  H     10.59564760      1.77316752     16.76206315
  H     11.15558694      3.16368563     17.22184580
  O      3.34080287     -1.28621334     17.97066770
  H      2.78492348     -1.23416080     18.75162137
  H      2.94940430     -1.89361700     17.33863293
  O      4.43015185      2.37825717     -2.43813239
  H      4.86156134      1.80722538     -1.79828199
  H      3.79465231      2.94030032     -1.98885760
  O      2.47638905      5.94415087     22.79608014
  H      2.56081570      6.89516736     22.89627887
  H      2.44389809      5.72189115     21.86272867
  O      2.25533290      3.46433827     11.77537973
  H      2.86561459      3.31677847     12.50159069
  H      1.41012826      3.05736632     11.97934776
  O     -3.25648122      1.46297553      4.99670350
  H     -3.71220429      1.29734124      5.82524546
  H     -3.81886779      1.98588985      4.42061153
  O      0.68995500      7.37397150     21.58990436
  H      1.10221729      8.10129033     21.11804939
  H      0.08645322      6.91238956     21.00310992
  O      7.01417640     10.39244382     11.01815932
  H      7.24846377      9.46208679     10.98431820
  H      6.31297117     10.56949139     10.38683897
  O     -2.68212548      8.15678195      5.70710274
  H     -2.80853559      7.20943990      5.61675048
  H     -3.37006859      8.61947562      5.22311012
  O     11.68140506      4.92498763      5.81949709
  H     11.88076235      4.33806939      5.08643253
  H     10.94180997      5.49044959      5.58529231
  O     -1.64190984      6.99629514      7.43204605
  H     -1.87732301      6.14846353      7.04816819
  H     -2.42935057      7.41919370      7.78232294
  O      8.31095371      1.52963004     16.08580701
  H      8.51049639      0.74924302     16.60808934
  H      7.66722946      2.06984451     16.54990549
  O      1.26326961      0.96719891     15.33793563
  H      1.34217972      0.22783446     15.94515339
  H      0.37128778      0.99767374     14.98432608
  O     10.03329891     -3.62809185     17.70613472
  H      9.97731880     -2.66998975     17.68362693
  H      9.19064789     -3.99180222     17.98765565
  O      6.41438107     11.55678768      4.59950930
  H      6.29831174     12.36510784      4.09478517
  H      5.94438522     10.83938787      4.16818410
  O      4.01592956     10.53463717      9.65976834
  H      4.01869964      9.80967771      9.03046229
  H      3.74017819     11.34122867      9.21821275
  O      3.93097212     -1.49357885      7.34383128
  H      4.76735049     -1.94767921      7.21787853
  H      3.47590382     -1.42069403      6.50169077
  O      3.10028845     11.82822952      3.60512755
  H      3.08826782     12.06790358      4.53464993
  H      3.97623671     11.51670784      3.36581834
  O      6.13602091      8.03322099     16.37954611
  H      6.50287182      7.38539033     16.98562849
  H      5.71890286      8.73908110     16.87891976
  O      4.72525210      1.89261371     11.61629574
  H      4.43488825      1.72777151     10.71623136
  H      4.68088634      2.83382331     11.80002430
  O      9.13637933      3.74413315      1.65686917
  H      9.42118764      4.59134625      2.00717503
  H      8.38837888      3.42225277      2.16528668
  O     -2.50867522     10.59611107     12.49819448
  H     -1.57610596     10.38112099     12.42273690
  H     -3.01990352     10.00524472     11.94041083
  O      3.12261652     10.05622143      4.54317189
  H      3.92267618      9.54866680      4.69774494
  H      2.72622543     10.29376474      5.38462734
  O      1.32631719     10.41606618      2.29250970
  H      0.51966185      9.90246980      2.20809448
  H      1.10510516     11.33391587      2.46634062
  O      9.45287715     -0.93914733      1.87404599
  H      9.06732358     -0.99059374      0.99637765
  H      9.96884282     -0.13322573      1.95066059
  O     -2.95647504      2.90190507     14.08657678
  H     -3.70389257      2.36912275     14.36784184
  H     -2.30620641      2.93938767     14.79180424
  O     -4.44069269      6.24479512     17.40223969
  H     -4.95809749      5.48156809     17.13507537
  H     -3.62324741      6.26969550     16.89948410
  O      4.23962512      3.45862380     24.01526055
  H      4.78895468      3.08696285     23.32121072
  H      4.21792888      4.41453479     23.92945003
  O     11.09077711     -2.10040913     10.89229753
  H     11.74136735     -2.54598293     11.43983413
  H     11.32827869     -1.17468666     10.80157315
  O      6.72226792      5.20345729     16.77637670
  H      7.47463685      4.94865738     16.23728672
  H      5.97819738      5.41587794     16.20818966
  O      7.81981818      4.32685395     11.38070291
  H      7.23089620      4.77484310     10.76908487
  H      7.80056355      3.38228299     11.21036510
  O      4.35411751      0.43344054     14.74869891
  H      5.07568332      1.05483603     14.62700080
  H      3.55353841      0.91236255     14.97520901
  O      5.78495455     -4.72297784      9.18914877
  H      6.12046729     -3.82409179      9.22132125
  H      5.74650332     -5.01820179      8.27647997
  O      7.93661634      1.20865617     13.37109441
  H      8.83020601      0.87442427     13.47780217
  H      7.63143024      1.57865039     14.20269872
  O     10.70014206      2.58590775     -0.51408231
  H      9.90410320      2.39529646     -1.01566925
  H     11.31868332      3.06974093     -1.06627085
  O      6.86059785     -3.27953162     17.33121847
  H      6.26544748     -3.82748285     16.81435729
  H      7.44312095     -2.79486509     16.74184151
  O      2.10193778     -4.20565853     10.09614831
  H      2.11920472     -5.01978874      9.58772539
  H      1.49882966     -4.30303567     10.83667399
  O     -0.23104606     11.24538733      8.47751984
  H      0.32866807     10.70271103      9.03771850
  H     -0.79946885     11.79157656      9.02540018
  O     -1.79590985      6.33123417      3.17277396
  H     -1.34886802      5.69113350      3.73136571
  H     -2.19021588      7.01419141      3.72021543
  O      4.95940273     -4.78584011      5.99382494
  H      4.23199584     -5.09281344      5.44770536
  H      5.52234438     -4.20260950      5.47949163
  O      9.86625950      2.98082060     15.09525373
  H      9.42510906      3.01820429     14.24343875
  H     10.52939977      3.67330208     15.14336191
  O      2.38114314     -1.59188255     10.71464116
  H      2.24387396     -1.68362841      9.76894571
  H      2.43565757     -2.46204315     11.11644797
  O     -1.78871467      7.95669749     14.39018833
  H     -1.95883921      8.65278591     13.75134675
  H     -1.76905210      8.33076447     15.27409290
  O     11.95164711     -0.09987397     14.70923420
  H     12.03493068     -0.91616243     15.20756841
  H     11.03645919      0.18982895     14.71939782
  O      1.62617048     -0.50876099      7.35724844
  H      1.91956216      0.04691323      8.08302216
  H      1.27939687     -1.33360136      7.70507948
  O      1.68886281      8.89918409     -0.72306461
  H      1.22347210      9.70808099     -0.49790402
  H      2.01593736      8.95775109     -1.62372668
  O     -5.02080740      5.72081597      5.59369356
  H     -5.18855744      5.19121763      6.37662748
  H     -4.95951508      6.64661786      5.84013650
  O     -2.72236932     -1.36888422     -0.19228784
  H     -3.11754101     -0.61726764      0.25549766
  H     -2.74194319     -2.13384157      0.38741649
  O     -0.93554369     -4.19573025      5.69799755
  H     -0.47565431     -3.97888787      6.51229549
  H     -1.41074994     -3.42339395      5.38291714
  O      4.18991785     -3.33816816     19.92843196
  H      3.43315298     -3.48201461     19.35553133
  H      4.84711985     -2.81338023     19.46552467
  O     -0.95254196      8.92645446      9.82550573
  H     -1.03716633      9.72466734     10.35209372
  H     -0.05869544      8.58487450      9.90271663
  O      6.33556049      8.02122115      9.76705467
  H      5.65301384      8.66539510      9.96897050
  H      6.61891087      7.59011338     10.57665868
  O      0.43596611      1.71026721     19.51919937
  H      0.42222619      2.36274057     18.81514700
  H      0.43499862      0.82868864     19.13917530
  O      4.26959921      8.13556366     19.58331760
  H      5.06521133      8.47693609     19.99812627
  H      3.54567047      8.15586356     20.21348829
  O      9.41571221     -0.67713044      9.77364659
  H      8.54319994     -0.43102398      9.45780807
  H     10.08252348     -0.32734017      9.17815562
  O     11.27326676      6.01646362      3.11726413
  H     10.33956008      6.23934792      3.12796112
  H     11.37640307      5.06478583      3.18987464
  O      1.21810769     12.28417683      7.03293516
  H      1.99185702     12.17009336      6.47625128
  H      0.46295938     12.51766234      6.48810900
  O     -4.34845904      8.34200574     14.16136629
  H     -4.10990714      8.03880636     15.04043576
  H     -3.90734388      9.17492532     13.97898647
  O      2.03858146     10.57233642     12.98537880
  H      2.51261486      9.79778037     12.67400237
  H      1.21755788     10.29973410     13.40156175
  O      8.01370775     11.62160040     14.75255049
  H      7.13736343     11.97551509     14.92096967
  H      8.67266242     12.19348501     15.15295869
  O      4.17244497     -0.40273066     10.09053378
  H      3.94803660     -0.08147406      9.21415767
  H      4.26077164     -1.35840754     10.06862269
  O      6.31466075      6.11128704     -2.74798559
  H      6.99291855      5.62630441     -3.22375676
  H      6.50092380      6.08266125     -1.80666383
  O      9.72354586      9.78504948     14.93064385
  H      8.78858343      9.62730075     14.78044198
  H      9.92826345      9.63962644     15.85721972
  O     -1.94154526     -2.61779936     17.20912259
  H     -2.09939328     -1.98427870     17.91292341
  H     -1.65489619     -3.45225372     17.58743229
  O      2.26360921      8.41505863     10.04780925
  H      3.20200090      8.43325633     10.24952659
  H      2.12942226      8.64721355      9.12601862
  O     -3.11528544     -2.35106953     12.59483321
  H     -3.65114421     -1.70723216     13.06379890
  H     -2.26025866     -2.42996132     13.02414114
  O      1.93120405     -3.56296865      5.85732671
  H      1.28861436     -4.07251682      5.35828847
  H      2.52171420     -3.11001526      5.25091843
  O     -1.03472472      1.32816998      7.18458791
  H     -0.12871657      1.32012325      6.86727973
  H     -1.63587793      1.25788316      6.43942043
  O     -2.07246611      5.12738908     -0.23289445
  H     -2.82229710      5.50244786      0.23474258
  H     -1.35697627      5.76701190     -0.25649416
  O     -0.20415275     -1.10498410      5.25131689
  H      0.07180518     -1.71729499      5.93726340