#B3LYP/6-31+G(d) OPT FREQ

110, Energy = -12117.08260787 au

0 1
 Ni     -0.06116060     -3.59935000     -2.16707000
 Ni     -1.43901000     -0.27132000     -1.23084000
 Ni      0.60566200     -4.47886000      0.27134200
 Ni     -0.72092100      4.25470000     -0.47433700
 Ni     -1.30783000      2.36190000     -2.13043000
 Ni     -3.33083000      0.52118900      0.62504700
 Ni     -0.97556900     -0.89262700      1.28630000
 Ni      0.08673440      3.72314000      2.23235000
 Ni      0.36272100     -1.02765000     -3.26319000
 Ni      3.29856000     -0.60824600     -0.66929800
 Ni      0.79404800     -1.69207000     -0.55113600
 Ni      2.68832000     -2.35117000     -2.47486000
 Ni      3.53347000      1.88407000     -1.53449000
 Ni      1.92309000     -0.32900000      3.59894000
 Ni      1.42067000      0.22023400      1.15706000
 Ni      2.66688000      0.02239580     -3.27893000
 Ni      1.03896000      3.56291000     -2.14568000
 Ni     -2.31491000     -2.33004000     -2.96910000
 Ni      3.78091000     -1.09282000      1.72179000
 Ni     -1.75018000     -2.98378000     -0.43641500
 Ni      3.84751000      1.28166000      1.21920000
 Ni      0.97287300      0.88744500     -1.37569000
 Ni     -1.90305000      0.30282700     -3.76258000
 Ni     -3.94984000     -1.59342000     -1.28669000
 Ni      2.35989000      2.24464000      2.99382000
 Ni     -0.27997400      1.01476000      3.13191000
 Ni      3.14451000     -3.35922000      0.05494730
 Ni     -1.32821000     -3.37557000      2.13931000
 Ni     -3.16495000      3.23923000     -0.27962200
 Ni      1.62519000      2.71876000      0.38028300
 Ni     -2.40263000      2.36304000      2.29533000
 Ni     -2.71156000     -0.17009900      3.12846000
 Ni      0.33476200      1.55983000     -4.16042000
 Ni     -0.76036200      1.67592000      0.47778500
 Ni     -3.56761000     -1.99537000      1.64629000
 Ni     -0.53722500     -1.38211000      3.92358000
 Ni     -3.65349000      1.16964000     -2.01918000
 Ni      1.32405000     -2.49952000      2.03014000
  C      0.13884200      5.40097000     -2.89355000
  O      0.38292900      6.32571000     -3.78892000
  C      5.63216000     -1.41312000      0.26047900
  O      6.59876000     -1.99387000     -0.34065600
  C     -4.17885000     -3.66707000     -1.68538000
  O     -4.84899000     -4.68545000     -1.34063000
  C     -5.07154000     -1.80893000     -3.30105000
  O     -5.86488000     -2.78609000     -3.56360000
  C      0.06405320      0.00414829     -5.67581000
  O      0.30727600     -0.13895900     -6.90169000
  C      5.37128000      1.47171000     -2.37735000
  O      6.43156000      2.07705000     -2.79306000
  C      0.60652000     -6.13114000      1.79433000
  O      0.30866200     -7.22612000      2.44147000
  C     -3.36885000     -4.17802000     -2.95224000
  O     -3.94301000     -4.52933000     -4.05806000
  C     -2.20883000     -5.14761000     -2.27983000
  O     -2.31979000     -6.23936000     -2.99633000
  C      5.02385000     -1.73638000     -2.49430000
  O      5.79217000     -1.83837000     -3.52503000
  C      4.77195000     -2.96778000     -1.55720000
  O      5.75272000     -3.78989000     -1.51557000
  C     -5.33346000      0.00578285      1.59484000
  O     -6.46951000      0.61434200      1.44050000
  C      3.30566000      3.97384000      3.32794000
  O      4.37454000      4.45601000      3.85940000
  C     -1.17404000      5.44650000     -2.36221000
  O     -2.26089000      6.00796000     -2.92120000
  C     -3.71145000      4.36878000     -2.15128000
  O     -4.83802000      4.94912000     -2.29463000
  C     -5.43913000     -0.23114500     -3.04629000
  O     -6.65522000      0.15839300     -3.12090000
  C      3.59606000     -4.75488000      1.28649000
  O      4.62812000     -5.29509000      1.82419000
  C     -3.47251000     -3.62950000      3.32484000
  O     -4.18993000     -4.18904000      4.20949000
  C     -5.33462000     -1.11522000      2.60333000
  O     -6.48765000     -1.38995000      3.19358000
  C      4.46827000      0.96855200      3.65737000
  O      5.43458000      1.18499000      4.41249000
  C      1.99596000     -1.68362000     -4.79583000
  O      2.09367000     -2.04841000     -6.05797000
  C      1.15530000      5.36398000      2.59557000
  O      1.05336000      6.63832000      2.73636000
  C     -4.43067000     -0.67350100     -4.25040000
  O     -4.56977000     -0.54425900     -5.51169000
  C      2.18611000     -5.48846000     -1.13608000
  O      2.60517000     -6.67145000     -1.33194000
  C      2.15602000     -4.09594000      2.94490000
  O      2.70034000     -4.45820000      4.05450000
  C     -2.69729000      5.55098000     -1.44573000
  O     -3.20436000      6.65782000     -0.95275900
  C      2.42595000     -5.39578000      2.11183000
  O      2.67994000     -6.65610000      2.31278000
  C      5.93802000     -0.52864000      1.39101000
  O      7.16269000     -0.35820900      1.74474000
  C     -1.52436000      3.57688000     -4.34728000
  O     -1.62622000      4.78655000     -4.77156000
  C     -5.09661000      2.75061000      0.62427600
  O     -6.24113000      3.27463000      0.71370500
  C     -3.05554000      3.49810000     -3.30105000
  O     -3.87750000      3.59015000     -4.30662000
  C     -0.72757400      2.76026000     -5.34755000
  O     -0.75754400      3.14973000     -6.55782000
  C      2.62533000      5.03370000      2.50701000
  O      3.38353000      5.82473000      1.84688000
  C     -1.90537000     -5.16346000     -0.77249000
  O     -2.29739000     -6.24184000     -0.24710300
  C     -0.66432300      0.30806200      5.44063000
  O     -0.76884100      0.61420600      6.68845000
  C      5.50921000      0.01573230     -2.00982000
  O      6.75384000     -0.20301400     -1.73982000

