#B3LYP/6-31+G(d) OPT FREQ

110, Energy = -12220.08672034 au

0 1
 Ni     -0.08774650     -3.45331000     -2.48631000
 Ni     -1.37930000     -0.18559100     -1.23614000
 Ni      0.69051100     -4.51102000      0.38198900
 Ni     -0.36757100      4.63302000     -0.33737400
 Ni     -1.18948000      2.54399000     -2.00321000
 Ni     -3.22466000      0.63710900      0.79246900
 Ni     -0.97315600     -0.82738600      1.38322000
 Ni     -0.31148800      3.59163000      2.38236000
 Ni      0.21172200     -1.05643000     -3.21179000
 Ni      3.21100000     -0.64512000     -0.68088800
 Ni      0.80060300     -1.69586000     -0.55653900
 Ni      2.35190000     -2.48620000     -2.67759000
 Ni      3.38923000      1.97027000     -1.49954000
 Ni      1.67821000     -0.31218100      3.90238000
 Ni      1.37763000      0.20367300      1.23047000
 Ni      2.63089000      0.01374490     -3.41551000
 Ni      1.29866000      3.76300000     -2.18626000
 Ni     -2.37292000     -2.15465000     -3.26873000
 Ni      3.84058000     -1.41417000      1.76037000
 Ni     -1.54421000     -2.68263000     -0.45227900
 Ni      3.65744000      1.30917000      1.07468000
 Ni      0.97744500      0.90344500     -1.33085000
 Ni     -1.93280000      0.17149000     -3.88967000
 Ni     -3.69052000     -1.35669000     -1.22525000
 Ni      1.84317000      2.12134000      3.10342000
 Ni     -0.49455300      1.10384000      3.31102000
 Ni      2.92453000     -3.27046000      0.27319800
 Ni     -1.11786000     -3.35172000      2.08475000
 Ni     -3.01904000      3.15617000     -0.25265200
 Ni      1.52545000      2.96491000      0.43871500
 Ni     -2.73852000      2.67399000      2.28831000
 Ni     -2.82848000     -0.13597500      3.30477000
 Ni      0.52665400      1.38070000     -3.90815000
 Ni     -0.78768300      1.70780000      0.55345400
 Ni     -3.36236000     -2.06986000      1.61676000
 Ni     -0.76693300     -1.51431000      4.11204000
 Ni     -3.57753000      1.20474000     -1.89703000
 Ni      1.22794000     -2.38684000      2.05238000
  C      2.08398000     -3.23995000     -4.43686000
  O      2.89662000     -3.54389000     -5.39081000
  C      2.33552000      5.28610000     -1.54304000
  O      3.41108000      5.97274000     -1.65131000
  C     -3.86940000     -1.25017000     -4.69565000
  O     -4.24584000     -0.97518500     -5.88721000
  C      0.75087400     -3.21475000     -5.08686000
  O      0.51400200     -3.02757000     -6.34362000
  C      0.13138000      4.59500000     -3.80820000
  O      0.10716300      5.74180000     -4.35698000
  C      1.44274000      6.07766000     -0.60386900
  O      1.11001000      7.32432000     -0.86530300
  C      1.61846000      5.32255000      0.79828800
  O      2.43857000      6.15823000      1.32075000
  C     -4.97045000      2.09025000      1.41215000
  O     -6.11431000      2.59043000      1.12456000
  C     -1.84083000      5.44088000      2.14889000
  O     -1.80841000      6.71800000      2.09300000
  C     -1.22283000      0.25927700      5.34990000
  O     -1.23866000      0.60711200      6.61595000
  C      1.36274000     -4.44026000      2.58995000
  O      1.96470000     -5.37318000      3.53621000
  C      1.35130000      0.65789000      5.55359000
  O      1.42031000      0.41081300      6.80459000
  C     -3.43974000      4.14222000     -1.91924000
  O     -4.40418000      4.84621000     -2.39578000
  C     -4.54382000     -2.01574000     -3.62762000
  O     -5.71295000     -2.51630000     -3.79189000
  C     -4.81361000      1.13111000      2.66398000
  O     -5.89513000      0.94247200      3.33248000
  C     -1.61714000     -3.02589000      5.37667000
  O     -1.55439000     -4.00737000      6.18803000
  C     -2.88251000     -2.28738000      4.97394000
  O     -3.82477000     -2.08129000      5.85935000
  C      2.61886000     -0.52863300     -5.41852000
  O      3.35490000     -1.08952000     -6.29719000
  C     -4.97324000      0.65589600     -3.64678000
  O     -6.13818000      0.57923300     -4.16766000
  C      1.05107000      2.20977000      5.50781000
  O      1.61774000      2.93652000      6.39868000
  C     -1.26339000     -1.37627000     -5.39557000
  O     -1.19101000     -1.12635000     -6.65374000
  C     -3.89483000     -2.76967000      3.50596000
  O     -4.98545000     -3.71146000      4.02193000
  C     -3.01575000      4.66060000      2.49154000
  O     -4.08660000      5.30094000      2.83332000
  C      3.79635000     -4.69909000      1.50530000
  O      3.84136000     -5.99642000      1.53870000
  C     -1.42532000      5.69861000     -1.53849000
  O     -1.72678000      6.91073000     -1.83488000
  C      1.27224000     -6.49184000      0.92339300
  O      1.42861000     -7.30968000      1.90285000
  C      1.50309000     -6.30921000     -0.44774200
  O      1.97541000     -6.99616000     -1.42728000
  C      4.05180000     -3.64576000      2.44168000
  O      4.62476000     -3.98345000      3.54692000
  C     -0.14126700      2.80417000      4.64957000
  O     -0.78440600      3.47841000      5.53905000
  C     -1.79767000     -2.89235000     -5.34144000
  O     -2.59337000     -3.29434000     -6.23422000
  C      5.47988000     -1.35556000     -0.06454010
  O      6.37172000     -1.65196000     -0.94578400
  C      5.84582000     -1.40950000      1.32808000
  O      6.99013000     -1.54368000      1.89255000
  C      1.29023000      0.05506900     -5.63179000
  O      0.86993500     -0.04634170     -6.84368000
  C      5.52516000      1.07007000     -1.71648000
  O      6.70564000      1.37020000     -2.13705000
  C     -2.16779000      4.83868000     -2.56285000
  O     -2.23238000      5.09533000     -3.83133000
  C     -0.80391800     -3.89873000     -4.65335000
  O     -0.97675500     -5.02945000     -5.25505000

