#B3LYP/6-31+G(d) OPT FREQ

110, Energy = -12165.42572817 au

0 1
 Ni      0.20070400     -3.78451000     -2.23822000
 Ni     -1.36376000     -0.30227900     -1.24747000
 Ni      0.60870000     -4.35371000      0.07494640
 Ni     -0.49493300      4.03826000     -0.27588700
 Ni     -1.13644000      2.25594000     -2.14937000
 Ni     -3.20157000      0.48378600      0.61298700
 Ni     -0.99124500     -0.93258300      1.31811000
 Ni     -0.13992700      3.39797000      2.25031000
 Ni      0.41224600     -1.14929000     -3.31629000
 Ni      3.34863000     -0.50006200     -0.79616700
 Ni      0.79827100     -1.69364000     -0.58830700
 Ni      2.75246000     -2.52939000     -2.54125000
 Ni      3.62381000      1.97446000     -1.91565000
 Ni      1.90295000     -0.24018200      4.08934000
 Ni      1.41374000      0.23668000      1.24365000
 Ni      2.79538000      0.36153500     -3.52329000
 Ni      1.10061000      3.43250000     -2.56272000
 Ni     -1.92730000     -2.46775000     -3.27534000
 Ni      3.50536000     -1.13219000      1.77902000
 Ni     -1.70806000     -3.05396000     -0.44829300
 Ni      4.07446000      1.38086000      0.96522800
 Ni      1.04718000      0.85425100     -1.41274000
 Ni     -1.74214000      0.24605200     -3.85161000
 Ni     -3.68145000     -1.37692000     -1.07118000
 Ni      2.18180000      2.24310000      3.24739000
 Ni     -0.29788700      1.03471000      3.23201000
 Ni      3.21401000     -3.17282000      0.08393420
 Ni     -1.33869000     -3.57885000      2.04008000
 Ni     -3.03013000      2.93020000     -0.01247410
 Ni      1.72973000      2.67210000      0.41585600
 Ni     -2.89517000      2.44309000      2.42664000
 Ni     -2.81507000     -0.07246730      3.08400000
 Ni      0.52642600      1.57057000     -4.07164000
 Ni     -0.79554700      1.55811000      0.54700800
 Ni     -3.46783000     -1.87599000      1.42245000
 Ni     -0.63068000     -1.35649000      3.96763000
 Ni     -3.59383000      1.17390000     -1.70071000
 Ni      1.18934000     -2.46267000      2.04862000
  C      3.38374000      3.93987000      2.34333000
  O      3.92914000      4.97378000      2.84531000
  C      2.52719000      3.08401000     -4.48400000
  O      2.67225000      3.84172000     -5.52855000
  C     -3.14174000      4.63112000      2.81273000
  O     -3.97711000      5.33662000      3.47684000
  C      1.40663000     -4.47130000      2.87887000
  O      1.98328000     -5.06633000      3.87251000
  C     -2.69633000     -5.15272000      2.07470000
  O     -3.31380000     -6.03253000      2.77635000
  C     -2.21373000     -5.39107000     -2.03861000
  O     -3.17928000     -6.21372000     -1.93839000
  C      6.09987000      1.24180000      1.12156000
  O      7.21481000      1.15557000      1.71919000
  C      3.06614000     -0.50646200     -5.49747000
  O      2.88287000     -1.30279000     -6.50107000
  C      2.26120000     -3.19282000     -4.62704000
  O      2.88522000     -3.51081000     -5.69029000
  C      2.13413000     -5.11465000     -1.74015000
  O      2.55838000     -6.27644000     -2.14436000
  C     -2.50801000     -4.27315000     -3.01137000
  O     -3.39820000     -4.86388000     -3.76469000
  C      3.26265000     -4.63515000      1.76421000
  O      4.18505000     -5.44297000      2.17130000
  C     -5.11606000      1.81193000      0.24937200
  O     -6.38362000      1.71226000      0.13432100
  C      3.79375000      2.58005000     -3.80184000
  O      4.90736000      2.92568000     -4.35526000
  C     -1.02464000      3.52875000     -4.24826000
  O     -1.91142000      3.90634000     -5.08932000
  C     -5.33949000      0.53003300      2.44923000
  O     -6.35938000      0.83009900      3.14683000
  C      1.52113000      2.16630000      5.03620000
  O      1.92783000      2.77233000      6.11811000
  C      3.76791000      0.46780800      4.77053000
  O      4.48948000      0.28858400      5.81336000
  C     -1.14741000     -0.68232000     -5.74560000
  O     -1.94874000     -0.66029400     -6.81153000
  C      5.38460000      1.36234000     -1.86225000
  O      6.19950000      1.37112000     -2.85911000
  C     -0.83960100     -0.24027200      5.72680000
  O     -1.76738000     -0.24609700      6.62784000
  C      5.65134000     -0.80948200     -0.42120500
  O      6.75587000     -0.97756900     -1.14713000
  C      0.29125700      0.04331500     -5.69146000
  O      0.87941900     -0.04604490     -6.81563000
  C     -5.04640000      2.07821000      1.85028000
  O     -5.57719000      3.17180000      2.36401000
  C     -0.34178700     -1.93280000     -5.16208000
  O      0.19302800     -2.82238000     -5.91141000
  C      5.23632000     -2.43592000     -0.58592100
  O      6.08767000     -3.18657000      0.03767250
  C     -5.33528000     -0.81493600      1.64754000
  O     -6.55305000     -1.22568000      1.48664000
  C      4.63269000     -2.69407000     -2.02060000
  O      5.72109000     -2.96036000     -2.71562000
  C     -0.82132800     -5.58879000     -1.46540000
  O     -0.74748600     -6.87581000     -1.47727000
  C      0.17139000      1.54729000      5.64706000
  O     -0.66500800      2.26701000      6.30370000
  C     -2.80670000     -4.99199000      0.65241000
  O     -3.53223000     -5.95557000      0.16055500
  C      5.98352000      0.88804300     -0.44150500
  O      7.23919000      1.36481000     -0.65358700
  C     -2.53639000     -3.29466000     -5.00734000
  O     -2.17282000     -3.39732000     -6.24733000
  C      0.69347100      0.01943860      6.01683000
  O      1.37848000     -0.18436400      7.10198000
  C      3.79083000      0.68174100     -5.39444000
  O      4.54164000      1.37341000     -6.16692000
  C      0.07817110      4.46889000     -3.84771000
  O      0.22512200      5.61845000     -4.38121000

