#B3LYP/6-31+G(d) OPT FREQ

110, Energy = -10135.47352576 au

0 1
 Ni      0.08090360     -3.46876000     -2.23212000
 Ni     -1.36656000     -0.22866800     -1.15844000
 Ni      0.47666300     -4.16288000      0.22151800
 Ni     -0.48354700      4.16531000     -0.21675700
 Ni     -1.13700000      2.23533000     -1.90211000
 Ni     -3.02576000      0.49290000      0.65508400
 Ni     -0.94615500     -0.86126200      1.28449000
 Ni     -0.08307110      3.46247000      2.23723000
 Ni      0.29442100     -0.96009300     -2.97822000
 Ni      3.02670000     -0.49194400     -0.65551800
 Ni      0.71365900     -1.60816000     -0.53177600
 Ni      2.40628000     -2.33191000     -2.39205000
 Ni      3.28598000      1.98131000     -1.42449000
 Ni      1.82122000     -0.40631500      3.63940000
 Ni      1.36654000      0.22819000      1.15859000
 Ni      2.63609000      0.15667600     -3.13334000
 Ni      1.17707000      3.36763000     -2.04768000
 Ni     -2.03804000     -2.06738000     -2.88463000
 Ni      3.49630000     -1.13490000      1.81695000
 Ni     -1.59250000     -2.69695000     -0.40725400
 Ni      3.71941000      1.33962000      1.06011000
 Ni      0.94606500      0.86107000     -1.28418000
 Ni     -1.81642000      0.40982900     -3.63323000
 Ni     -3.72158000     -1.34632000     -1.05542000
 Ni      2.03609000      2.06368000      2.88450000
 Ni     -0.29317400      0.95942300      2.97396000
 Ni      2.80585000     -2.98925000      0.09013840
 Ni     -1.18227000     -3.37007000      2.05118000
 Ni     -2.80606000      2.98855000     -0.08999030
 Ni      1.58542000      2.68973000      0.40619100
 Ni     -2.40514000      2.33068000      2.38765000
 Ni     -2.63345000     -0.16067500      3.13900000
 Ni      0.52614400      1.52014000     -3.75532000
 Ni     -0.71380500      1.60793000      0.53170800
 Ni     -3.28622000     -1.99991000      1.42408000
 Ni     -0.53163200     -1.52250000      3.76344000
 Ni     -3.49802000      1.13727000     -1.80494000
 Ni      1.13748000     -2.23338000      1.90089000
  C      2.39371000     -3.16559000     -4.74591000
  O      2.59001000     -3.58065000     -5.92970000
  C      5.57074000      1.38454000      2.75413000
  O      6.54960000      1.61648000      3.53454000
  C     -1.41253000     -6.01789000      0.61830200
  O     -2.03961000     -7.11309000      0.52214700
  C     -0.33834000      4.66271000     -3.74060000
  O     -0.78216100      5.56815000     -4.53771000
  C      0.85476900      0.17601100      5.98526000
  O      0.74890200      0.55642000      7.20853000
  C     -0.12997800      3.14143000      4.96119000
  O     -0.19359100      3.53443000      6.18021000
  C     -4.30774000     -2.00429000     -4.10756000
  O     -5.27204000     -2.17479000     -4.94051000
  C      3.96266000     -4.19798000     -3.17118000
  O      4.49278000     -5.30062000     -3.56513000
  C     -4.13740000     -4.42379000      1.42208000
  O     -4.83872000     -5.47188000      1.32214000
  C     -3.81634000      4.05823000      3.76703000
  O     -4.38386000      5.13862000      4.16019000
  C      4.62587000     -1.11353000      4.35409000
  O      5.58997000     -1.00986000      5.18608000
  C     -2.93375000      5.04099000      2.19639000
  O     -3.48798000      6.12025000      2.58315000
  C     -2.73077000     -1.97952000      5.35284000
  O     -3.38384000     -2.57596000      6.28383000
  C     -6.21807000     -0.10342200     -1.59912000
  O     -7.46051000      0.09017160     -1.33323000
  C     -2.67707000      4.37346000     -2.69574000
  O     -3.13962000      5.27973000     -3.47777000
  C     -4.49287000     -3.88362000     -0.65249100
  O     -5.21357000     -4.91652000     -0.84756500
  C     -0.99919700     -5.95524000     -1.31825000
  O     -1.66126000     -7.02215000     -1.54537000
  C     -1.76893000     -2.75290000     -5.27028000
  O     -1.66110000     -3.14360000     -6.49122000
  C      2.10200000     -5.36899000     -2.38557000
  O      2.63071000     -6.47525000     -2.77119000
  C     -2.93766000     -4.93082000     -0.04898180
  O     -3.58315000     -6.03904000     -0.26763200
  C     -5.51565000      1.25729000      0.69639700
  O     -6.75751000      1.44535000      0.96974400
  C      4.37448000      0.84612900      4.25457000
  O      5.31935000      1.04378000      5.11442000
  C     -1.39447000     -3.94357000      5.00995000
  O     -2.06043000     -4.55353000      5.92452000
  C      4.00189000     -4.91786000     -1.04571000
  O      4.53356000     -6.03033000     -1.40819000
  C      5.93236000     -0.55046400      2.70396000
  O      6.91666000     -0.44543100      3.51289000
  C      0.77198500     -5.41489000      2.64793000
  O      1.22280000     -6.31730000      3.44424000
  C     -1.69601000      6.02691000      1.06279000
  O     -2.15778000      7.16418000      1.40904000
  C      4.41701000      3.09862000     -3.36439000
  O      5.09656000      3.71557000     -4.26525000
  C     -3.76300000      2.84561000     -3.76027000
  O     -4.26331000      3.71996000     -4.55859000
  C      1.96240000      5.60734000     -0.34490400
  O      2.63252000      6.69547000     -0.20719500
  C     -3.46847000     -3.35191000      3.89227000
  O     -4.14928000     -3.98312000      4.77850000
  C      5.49760000      0.26047700     -1.87594000
  O      6.74054000      0.06728050     -2.14009000
  C      0.76409200     -2.26034000     -5.18441000
  O      0.80341000     -2.59290000     -6.41517000
  C     -2.15764000      3.23386000      4.69670000
  O     -2.31550000      3.63902000      5.98160000
  C     -5.81027000      2.61580000     -1.67486000
  O     -7.05310000      2.80709000     -1.40837000
  C      3.27619000     -3.58745000      3.21567000
  O      3.75548000     -4.47806000      4.00876000

