#B3LYP/6-31+G(d) OPT FREQ

110, Energy = -12273.69508439 au

0 1
 Ni     -0.30450100     -3.76148000     -2.26714000
 Ni     -1.48630000     -0.25244000     -1.21085000
 Ni      0.40933200     -4.70693000      0.39119000
 Ni     -0.83549200      4.49894000     -0.28114500
 Ni     -1.25263000      2.40658000     -2.19396000
 Ni     -3.32197000      0.54924400      0.74444800
 Ni     -1.04364000     -0.93695600      1.37723000
 Ni     -0.35917800      3.77985000      2.19253000
 Ni      0.36178200     -0.97428700     -3.26478000
 Ni      3.12074000     -0.46092200     -0.67980300
 Ni      0.63645300     -1.72803000     -0.51052800
 Ni      2.33913000     -2.34200000     -2.31960000
 Ni      3.60340000      1.85291000     -1.53861000
 Ni      1.58300000     -0.35768800      3.98133000
 Ni      1.37248000      0.16539000      1.20690000
 Ni      2.98741000      0.34542200     -3.29539000
 Ni      1.00932000      3.67345000     -2.11554000
 Ni     -2.03562000     -2.36553000     -3.07295000
 Ni      3.64482000     -1.08823000      2.23549000
 Ni     -1.88206000     -2.92938000     -0.31697400
 Ni      3.82735000      1.51134000      1.07655000
 Ni      0.94146900      0.88978400     -1.41975000
 Ni     -1.98730000      0.25807100     -3.66145000
 Ni     -3.91011000     -1.48775000     -1.31274000
 Ni      2.05263000      2.08826000      2.83789000
 Ni     -0.43817600      0.98588200      3.28974000
 Ni      2.78988000     -3.21453000      0.42993500
 Ni     -1.19255000     -3.77631000      2.26831000
 Ni     -2.93497000      3.18985000     -0.28753000
 Ni      1.59010000      2.82705000      0.32668100
 Ni     -2.43919000      2.29939000      2.72079000
 Ni     -2.90772000     -0.60075100      3.31122000
 Ni      0.45427100      1.48137000     -4.06001000
 Ni     -0.82807100      1.68046000      0.49647900
 Ni     -3.65603000     -2.12799000      1.19451000
 Ni     -0.55888600     -1.62559000      4.07046000
 Ni     -3.82537000      1.28828000     -1.83604000
 Ni      1.20998000     -2.46896000      2.24783000
  C      0.36820300     -0.24212400      5.38183000
  O      0.34607900      0.05677240      6.63114000
  C     -4.53079000     -0.76117400     -3.76082000
  O     -5.62479000     -0.22294100     -4.17885000
  C     -1.38724000      5.44842000      2.23537000
  O     -1.63219000      6.24555000      3.22067000
  C      4.53224000      0.76380000      4.07111000
  O      4.99714000      1.58477000      4.92601000
  C      4.97038000      0.82836100     -2.19261000
  O      6.27593000      0.95115500     -2.35589000
  C     -1.30654000     -3.87642000     -4.57513000
  O     -1.28108000     -4.08169000     -5.83573000
  C     -1.91312000      5.71290000      0.87754100
  O     -2.77740000      6.64035000      0.63782500
  C     -2.24427000     -1.40813000     -5.49096000
  O     -1.57535000     -1.66764000     -6.62528000
  C     -1.89869000      2.32471000      4.52823000
  O     -2.21145000      2.89806000      5.67817000
  C     -3.83713000      3.31411000     -2.56170000
  O     -4.24910000      3.88722000     -3.63480000
  C      0.06149350     -3.71083000      4.01036000
  O      0.39205200     -4.71056000      4.89591000
  C     -4.46319000     -2.39914000     -3.57041000
  O     -5.34319000     -3.31696000     -3.74972000
  C     -0.10161400     -5.83078000      2.31356000
  O      0.10665500     -6.94654000      2.85257000
  C     -2.63985000     -2.96257000      4.54438000
  O     -2.84873000     -4.06133000      5.16738000
  C     -4.08488000     -3.44588000     -0.05345110
  O     -4.82593000     -4.56433000     -0.10178700
  C      1.33734000     -0.71830600     -5.56781000
  O      1.16144000     -1.85448000     -6.15663000
  C      3.37545000      1.10406000     -5.03295000
  O      4.14207000      2.04596000     -5.43715000
  C      2.85968000     -3.77228000      2.45487000
  O      3.90258000     -4.01394000      3.19930000
  C     -4.01732000     -1.65640000     -5.05311000
  O     -4.50397000     -2.12042000     -6.13563000
  C      2.87165000     -0.18711800     -5.67645000
  O      3.52682000     -0.92216700     -6.53631000
  C     -3.59781000     -1.86399000      4.50455000
  O     -4.72843000     -1.87155000      5.13259000
  C      2.10553000     -5.53487000      1.20197000
  O      2.55961000     -6.73862000      1.29575000
  C     -5.43043000      0.92829800      1.00892000
  O     -6.20355000      1.79112000      1.57357000
  C     -5.48733000      0.90127100     -0.67480400
  O     -6.74042000      1.02831000     -0.94235800
  C      4.18888000      3.64620000      1.47440000
  O      5.24540000      4.33963000      1.57802000
  C     -5.16753000     -0.57027700      1.76657000
  O     -6.30956000     -0.69346200      2.35072000
  C     -2.77662000     -4.92117000      1.47750000
  O     -3.11069000     -6.17686000      1.67248000
  C     -1.92082000      5.20004000     -2.33991000
  O     -2.21926000      6.39870000     -2.71423000
  C      4.94555000     -0.49437800      3.56665000
  O      6.02901000     -1.06924000      3.99506000
  C      2.32936000     -5.20446000      2.63201000
  O      2.13423000     -5.76714000      3.80649000
  C     -3.34959000      4.69764000     -1.81982000
  O     -4.14744000      5.60296000     -1.38644000
  C     -1.04102000     -5.66377000     -0.69149300
  O     -1.47988000     -6.82902000     -0.34325700
  C      1.96569000      5.24742000     -0.87814300
  O      2.74483000      6.26811000     -1.16240000
  C     -0.88634100      4.24555000     -3.12712000
  O     -0.83494400      4.55144000     -4.38190000
  C      0.39445200      0.49188500     -5.74204000
  O      0.17626600      0.80761500     -6.96714000
  C     -1.56198000     -5.18184000     -2.03070000
  O     -2.42783000     -5.71924000     -2.82041000

