#B3LYP/6-31+G(d) OPT FREQ

110, Energy = -12381.40075828 au

0 1
 Ni      0.04499300     -3.40210000     -2.20406000
 Ni     -1.40399000     -0.26081500     -1.13154000
 Ni      0.53903200     -4.21789000      0.38695600
 Ni     -0.48061500      4.58546000     -0.49861900
 Ni     -1.11140000      2.30688000     -1.90644000
 Ni     -3.12897000      0.44310800      0.72980200
 Ni     -0.95874300     -0.86841900      1.43163000
 Ni     -0.09489020      4.01321000      2.62884000
 Ni      0.33717600     -0.93075900     -3.05513000
 Ni      3.24898000     -0.50241400     -0.71127900
 Ni      0.71871600     -1.60177000     -0.46583100
 Ni      2.47735000     -2.27168000     -2.37161000
 Ni      3.54232000      2.03377000     -1.54994000
 Ni      1.93189000     -0.48404000      4.17536000
 Ni      1.44414000      0.26231600      1.25272000
 Ni      2.68381000      0.11669200     -3.32744000
 Ni      1.41110000      3.34405000     -2.17526000
 Ni     -2.40737000     -1.99960000     -2.93048000
 Ni      3.50753000     -1.10599000      2.04035000
 Ni     -1.80265000     -2.80248000     -0.34084700
 Ni      4.05396000      1.21936000      1.01310000
 Ni      1.02194000      0.89180900     -1.28460000
 Ni     -1.79519000      0.42724100     -3.61532000
 Ni     -4.04357000     -1.55425000     -0.97558400
 Ni      2.08140000      2.37667000      2.90820000
 Ni     -0.18426700      1.04271000      3.29179000
 Ni      2.81662000     -2.94882000      0.14377100
 Ni     -1.29339000     -3.34407000      2.19125000
 Ni     -2.74582000      3.15094000     -0.28706600
 Ni      1.72013000      2.98683000      0.39203900
 Ni     -2.27278000      2.54990000      2.61086000
 Ni     -2.80346000     -0.25947300      3.56612000
 Ni      0.75459000      1.64201000     -3.92103000
 Ni     -0.67914700      1.70922000      0.62489600
 Ni     -3.39381000     -2.24839000      1.61214000
 Ni     -0.61851500     -1.49996000      4.26712000
 Ni     -3.62396000      0.96373100     -1.78461000
 Ni      1.28708000     -2.36704000      2.25270000
  C      0.57805400      6.17150000     -0.12228700
  O      0.83710800      7.35656000     -0.56341700
  C      5.64756000      1.32335000     -0.97101500
  O      6.82386000      1.78935000     -1.18374000
  C     -3.55415000     -3.03029000      3.65332000
  O     -4.11291000     -4.02599000      4.23720000
  C     -5.05866000     -0.08427840      3.00542000
  O     -6.14711000      0.20575800      3.61610000
  C     -5.69402000     -0.15330500     -0.44642700
  O     -6.93995000     -0.22535500     -0.25748400
  C     -1.90224000      0.74212000      5.59510000
  O     -2.53142000      0.60180100      6.71254000
  C     -1.85744000     -2.52963000      5.34622000
  O     -1.97954000     -3.38722000      6.29766000
  C      2.10480000     -2.50049000      4.86265000
  O      2.22526000     -2.98518000      6.05139000
  C     -4.85107000     -0.56836100     -3.71539000
  O     -5.80152000     -0.00902756     -4.34848000
  C      1.50831000      5.08857000      2.97272000
  O      1.36110000      6.30344000      3.41210000
  C     -4.41080000     -3.67206000     -0.48277300
  O     -5.41041000     -4.32616000     -0.96851000
  C      2.49232000     -3.35453000      3.70778000
  O      3.16939000     -4.42733000      3.89441000
  C      5.64292000      0.54418300      3.02784000
  O      6.49899000      0.95976800      3.92219000
  C     -1.78856000      2.31068000      4.94545000
  O     -2.55537000      2.98382000      5.73461000
  C      5.12649000     -1.16443000     -1.81763000
  O      5.93989000     -1.88261000     -2.51798000
  C      2.65985000      4.80914000      0.18353100
  O      3.72996000      5.45997000     -0.07720270
  C      2.73001000      4.29356000      3.10644000
  O      3.82714000      4.91106000      3.37423000
  C      6.04554000      0.66286500      1.62150000
  O      7.31378000      0.85462000      1.27575000
  C      3.60887000      0.09194080      5.08026000
  O      3.96804000      0.60715700      6.20206000
  C     -2.58733000      4.93865000      2.56912000
  O     -3.64710000      5.67572000      2.67191000
  C      5.82179000     -0.19857300     -0.86842800
  O      6.85503000     -0.75006700     -0.28314300
  C     -3.29134000     -2.14362000      4.93336000
  O     -4.19692000     -1.74081000      5.78387000
  C      2.00318000     -0.67102700     -5.28286000
  O      2.44255000     -0.99584100     -6.46043000
  C     -1.64470000      5.44487000     -1.84213000
  O     -1.50433000      6.56727000     -2.46202000
  C      3.30638000      3.25975000     -3.79116000
  O      4.37132000      3.84997000     -4.22627000
  C      1.34479000     -5.24338000      2.24572000
  O      1.76020000     -6.33578000      2.70040000
  C     -3.46611000     -4.44485000      0.40027500
  O     -3.60860000     -5.69836000      0.62587100
  C      4.64568000     -0.49966700      4.13273000
  O      5.56478000     -1.23801000      4.68122000
  C     -0.56125400     -0.12476400      5.94523000
  O     -0.52509200     -0.83645200      7.01479000
  C      1.79624000      5.91737000      0.74727700
  O      2.22795000      6.96372000      1.42180000
  C     -4.35282000     -1.91466000     -3.81821000
  O     -5.03997000     -2.72232000     -4.56402000
  C     -1.29421000      5.54426000      2.64289000
  O     -1.08290000      6.80812000      2.81698000
  C     -2.82245000      4.60552000     -2.05066000
  O     -3.70669000      4.95152000     -2.92700000
  C      0.67351400      0.75313100      5.48430000
  O      0.80033300      1.50821000      6.51894000
  C      2.23128000      3.01794000     -4.77100000
  O      2.37601000      3.40191000     -5.98710000
  C     -0.50343700      3.24261000      4.56840000
  O     -0.16929600      3.95037000      5.63633000

