#B3LYP/6-31+G(d) OPT FREQ

110, Energy = -12170.95950415 au

0 1
 Ni      0.09347540     -3.63403000     -2.62325000
 Ni     -1.39652000     -0.20655700     -1.27821000
 Ni      0.56053400     -4.13039000      0.28041500
 Ni     -0.54061900      4.64328000     -0.24470500
 Ni     -1.28174000      2.50153000     -2.03037000
 Ni     -3.30848000      0.68233900      0.66600800
 Ni     -0.95945700     -0.88196700      1.24649000
 Ni     -0.20280000      3.66720000      2.52577000
 Ni      0.31240200     -1.10000000     -3.25946000
 Ni      3.25055000     -0.51796200     -0.62768400
 Ni      0.77430400     -1.65704000     -0.65192100
 Ni      2.80557000     -2.58630000     -2.41941000
 Ni      3.71204000      2.26964000     -1.78478000
 Ni      1.94202000     -0.14573900      3.90546000
 Ni      1.46345000      0.23464900      1.21256000
 Ni      2.63093000      0.02308040     -3.27483000
 Ni      1.37660000      3.59659000     -2.30464000
 Ni     -1.99512000     -2.28968000     -3.20230000
 Ni      3.86330000     -0.87218300      2.04627000
 Ni     -1.68040000     -2.93252000     -0.56003300
 Ni      4.18906000      1.53161000      0.84088500
 Ni      1.01052000      0.91046800     -1.36396000
 Ni     -2.06480000      0.33394800     -3.81819000
 Ni     -3.69797000     -1.35149000     -1.08064000
 Ni      2.26757000      2.06390000      2.91364000
 Ni     -0.32629500      1.15716000      3.09709000
 Ni      3.04617000     -3.02465000      0.28065900
 Ni     -1.29756000     -3.48441000      2.04239000
 Ni     -2.88949000      3.22014000     -0.32132200
 Ni      1.73997000      2.83565000      0.37505400
 Ni     -2.59958000      2.76901000      2.50014000
 Ni     -2.62389000     -0.10267000      3.08839000
 Ni      0.59488400      1.26045000     -3.94930000
 Ni     -0.76280500      1.72952000      0.55117100
 Ni     -3.38498000     -2.13071000      1.39483000
 Ni     -0.45337500     -1.48092000      3.73615000
 Ni     -3.87673000      1.02708000     -2.04160000
 Ni      1.30326000     -2.30867000      1.97134000
  C      5.93655000      1.08652000      0.21423100
  O      7.02200000      0.55230000      0.66062200
  C      1.67345000      1.24405000      5.72455000
  O      1.97718000      2.26082000      6.43580000
  C     -0.90433200      2.89167000      4.53136000
  O     -0.91628500      3.38277000      5.77017000
  C     -1.98554000     -5.50774000      1.09238000
  O     -2.82476000     -6.42249000      1.40075000
  C      4.14094000      0.79763300      4.37827000
  O      4.56553000      1.49670000      5.35272000
  C      5.17331000     -1.65989000      0.14800500
  O      6.43611000     -1.77134000     -0.26776600
  C      1.22971000      6.01726000     -0.10993500
  O      1.32418000      7.26004000      0.17105100
  C      1.36632000     -0.15675700     -5.36860000
  O      1.87096000      0.05136140     -6.53298000
  C     -4.29735000     -0.37857600     -4.86871000
  O     -4.70382000     -1.51600000     -5.29581000
  C      0.35629400     -1.31985000     -5.75803000
  O     -0.38031700     -1.43195000     -6.77013000
  C      4.87220000     -1.72183000     -3.12367000
  O      5.82375000     -1.17929000     -3.77141000
  C      5.62158000      1.49982000     -1.17238000
  O      6.63958000      1.59891000     -1.97433000
  C     -1.41103000      5.89822000      1.77776000
  O     -1.21612000      7.10633000      1.46849000
  C      4.87468000     -2.93894000     -2.38281000
  O      5.77920000     -3.74640000     -1.95624000
  C     -2.02273000     -4.70548000     -2.03418000
  O     -2.59875000     -5.85390000     -2.18191000
  C     -3.23223000      0.45876400     -5.67877000
  O     -3.70046000      0.67415600     -6.83541000
  C     -0.12077100     -2.76760000     -5.04560000
  O      0.69867100     -3.67781000     -5.44130000
  C     -2.88780000      4.04976000     -2.42146000
  O     -3.30977000      4.43976000     -3.56001000
  C     -4.22920000     -3.99545000      0.34581000
  O     -5.02784000     -4.93110000      0.65477500
  C     -4.71457000      0.41983600     -3.58219000
  O     -5.97486000      0.46233800     -3.90158000
  C      2.23136000     -4.73222000     -2.92274000
  O      2.85374000     -5.76562000     -3.32610000
  C     -1.41504000      6.07335000     -1.81770000
  O     -1.28806000      7.31378000     -1.60968000
  C     -1.51052000      5.44810000      3.31375000
  O     -1.33622000      5.98233000      4.46654000
  C      2.56969000     -4.45201000      2.03117000
  O      3.21413000     -5.30443000      2.76566000
  C     -1.66730000     -2.88237000     -4.90414000
  O     -2.13443000     -2.98841000     -6.08662000
  C      2.88016000      3.72826000     -3.81343000
  O      2.83218000      4.48475000     -4.84281000
  C     -2.85383000      5.41009000     -1.68669000
  O     -3.71076000      6.32668000     -1.29669000
  C      4.85511000     -0.21580400      3.56571000
  O      6.06773000     -0.39441300      3.87194000
  C      1.04707000      0.02743260      6.04597000
  O      0.50819800     -0.40729900      7.11751000
  C     -0.37694600      5.18932000     -2.75354000
  O     -0.74872400      5.56849000     -3.91599000
  C      4.06712000      2.88787000     -3.58215000
  O      5.03920000      2.73380000     -4.39512000
  C     -2.74542000      4.95722000      2.42233000
  O     -3.89986000      5.49725000      2.49354000
  C      3.31350000      4.39751000     -1.02525000
  O      4.14612000      5.45212000     -1.00920000
  C     -5.33860000      1.13928000     -0.08863320
  O     -6.51955000      1.28043000      0.38090000
  C      3.99792000      3.61466000      1.79305000
  O      4.92086000      4.52666000      1.86547000
  C     -4.80949000      2.44524000      2.12728000
  O     -5.87548000      2.77946000      2.75328000

