#B3LYP/6-31+G(d) OPT FREQ

110, Energy = -11951.34578278 au

0 1
 Ni      0.10383300     -3.75460000     -2.52572000
 Ni     -1.38954000     -0.24580600     -1.16256000
 Ni      0.64811300     -4.54945000      0.21616300
 Ni     -0.77645200      4.51973000     -0.15617300
 Ni     -1.10834000      2.36119000     -1.89636000
 Ni     -3.25617000      0.49523400      0.83159500
 Ni     -1.04476000     -0.84396300      1.36305000
 Ni     -0.42741400      3.62370000      2.36801000
 Ni      0.34827700     -1.05386000     -3.22059000
 Ni      3.13661000     -0.58447500     -0.71670500
 Ni      0.73944600     -1.69598000     -0.56968700
 Ni      2.48934000     -2.67140000     -2.44382000
 Ni      3.23314000      2.08920000     -1.58831000
 Ni      2.16906000     -0.47380200      3.89420000
 Ni      1.38081000      0.20233700      1.23106000
 Ni      2.90633000     -0.09710270     -3.28412000
 Ni      1.28395000      3.45811000     -2.42434000
 Ni     -1.87505000     -2.45755000     -3.03570000
 Ni      3.72459000     -1.07449000      1.91829000
 Ni     -1.62705000     -2.86354000     -0.52403000
 Ni      3.77706000      1.25946000      0.98857400
 Ni      0.97484300      0.84410200     -1.37169000
 Ni     -1.71887000      0.35156600     -3.65954000
 Ni     -3.74246000     -1.48499000     -0.99544300
 Ni      2.23650000      2.02859000      3.05977000
 Ni     -0.36892900      1.15280000      3.27608000
 Ni      2.84748000     -3.30513000      0.05894970
 Ni     -1.16606000     -3.34595000      2.01370000
 Ni     -3.02375000      2.97067000      0.02889100
 Ni      1.51703000      2.70477000      0.39688100
 Ni     -2.69225000      2.45289000      2.62010000
 Ni     -2.79555000     -0.31020100      3.52396000
 Ni      0.61835300      1.75691000     -3.98569000
 Ni     -0.80791800      1.64758000      0.59791700
 Ni     -3.73286000     -2.07450000      1.47506000
 Ni     -0.56184600     -1.68730000      3.98636000
 Ni     -3.55998000      1.16740000     -1.67679000
 Ni      1.21108000     -2.33140000      2.09162000
  C      2.31426000     -4.72640000     -2.76197000
  O      2.97043000     -5.25170000     -3.75625000
  C      4.80966000     -0.97315700     -2.81113000
  O      5.63588000     -1.20824000     -3.78948000
  C      3.06838000     -5.36773000     -0.31057300
  O      3.76401000     -6.41753000     -0.01820650
  C      3.68120000     -0.72091600      5.29892000
  O      3.93853000     -0.58335500      6.55897000
  C     -2.04691000      3.15568000      4.96362000
  O     -2.70918000      3.06311000      6.13450000
  C      2.09932000     -0.35807500     -5.43049000
  O      2.55604000     -0.80408500     -6.52994000
  C     -1.53672000      5.52483000      2.32711000
  O     -2.10224000      6.32285000      3.17487000
  C      3.41299000      3.79033000     -3.44524000
  O      4.43911000      4.48709000     -3.74109000
  C     -2.44362000      4.38987000      4.21049000
  O     -2.82530000      5.31070000      5.08424000
  C     -5.49521000     -1.50426000      3.16161000
  O     -6.30864000     -1.33145000      4.12147000
  C     -0.68546700      2.40589000      4.77906000
  O     -0.20362200      2.52339000      5.93718000
  C     -2.06863000     -4.51054000     -2.39682000
  O     -2.75155000     -5.65856000     -2.68425000
  C     -2.58708000      0.39262500      5.48051000
  O     -2.15542000      0.25417300      6.64208000
  C      3.65955000      1.61717000      4.40739000
  O      4.68875000      1.88351000      5.24206000
  C     -0.48842200      3.21732000     -5.18534000
  O     -1.02477000      3.52451000     -6.30931000
  C     -4.82919000      2.68100000      1.95820000
  O     -5.72939000      3.43414000      2.60525000
  C     -4.50465000     -3.63533000      0.14995200
  O     -5.25566000     -4.71463000      0.22413100
  C     -5.23477000      2.20316000      0.18267900
  O     -6.43122000      2.55954000     -0.18857500
  C      1.32202000     -5.46355000      2.16892000
  O      1.81500000     -6.58961000      2.50979000
  C     -0.58134000     -3.09798000     -4.75288000
  O     -0.57117900     -4.00091000     -5.70541000
  C     -0.16908300      4.18325000     -4.15123000
  O     -0.41030300      5.42606000     -4.43544000
  C     -0.34682900     -1.80924000     -5.24893000
  O     -0.07948860     -1.63557000     -6.50114000
  C      2.23200000     -5.85167000     -1.56546000
  O      2.35255000     -6.89256000     -2.43044000
  C     -1.85361000      5.16297000     -2.00376000
  O     -2.12063000      6.27823000     -2.55365000
  C      5.55327000     -0.59309700      0.41704100
  O      6.80817000     -0.63297300      0.67312500
  C     -5.68058000     -1.62324000      1.76021000
  O     -6.80556000     -1.54098000      1.12662000
  C     -2.90583000     -1.96890000      4.84850000
  O     -3.63994000     -2.42012000      5.72447000
  C      5.50003000     -1.09095000     -1.48420000
  O      6.69951000     -1.58438000     -1.43812000
  C     -3.87582000      1.14505000      5.34076000
  O     -4.44834000      1.75358000      6.37813000
  C      0.99209500     -6.35693000     -0.52786000
  O      1.09798000     -7.60734000     -0.30585400
  C      2.42426000      3.36528000     -4.47515000
  O      2.54870000      3.68113000     -5.70963000
  C     -5.37632000      1.26203000      1.48529000
  O     -6.41928000      0.69365900      1.85958000
  C      1.19230000     -3.09656000      4.39825000
  O      1.53418000     -4.00163000      5.19260000
  C      4.54974000     -0.82754600      4.15741000
  O      5.81642000     -0.61316200      4.31552000
  C     -4.58947000      0.90018200      4.03175000
  O     -5.84161000      1.12804000      4.15020000
  C     -1.45293000      5.95739000      0.94405000
  O     -1.85996000      7.13976000      0.60413100

