#B3LYP/6-31+G(d) OPT FREQ

110, Energy = -12480.23106428 au

0 1
 Ni      0.08593160     -3.65882000     -2.72499000
 Ni     -1.46791000     -0.24894300     -1.27760000
 Ni      0.67408100     -4.31612000      0.13043700
 Ni     -0.57342300      4.25025000     -0.52246500
 Ni     -1.25541000      2.15720000     -2.09307000
 Ni     -3.18844000      0.55445200      0.67373300
 Ni     -0.98511300     -0.90198400      1.26638000
 Ni      0.08423130      3.64361000      2.21831000
 Ni      0.27789500     -0.96806400     -3.19177000
 Ni      3.13571000     -0.59553200     -0.74269500
 Ni      0.75940400     -1.71368000     -0.58748300
 Ni      2.40242000     -2.72197000     -2.59684000
 Ni      3.35064000      1.96597000     -1.38483000
 Ni      2.07449000     -0.02650000      3.98887000
 Ni      1.43224000      0.27552300      1.24236000
 Ni      2.80747000      0.44214600     -3.37039000
 Ni      1.35080000      3.48485000     -1.96403000
 Ni     -2.19766000     -2.22993000     -3.10512000
 Ni      3.44303000     -1.16980000      2.15402000
 Ni     -1.79365000     -2.91910000     -0.56702800
 Ni      3.76227000      1.62274000      1.29857000
 Ni      0.95402800      0.90172600     -1.38441000
 Ni     -2.05304000      0.47783500     -3.98080000
 Ni     -3.91523000     -1.38988000     -1.10879000
 Ni      2.22878000      2.50073000      3.21021000
 Ni     -0.20475200      1.05047000      3.11012000
 Ni      2.89140000     -3.19940000      0.32649600
 Ni     -1.27934000     -3.42650000      2.22071000
 Ni     -2.87392000      3.08311000     -0.40431100
 Ni      1.62986000      2.81925000      0.44967600
 Ni     -2.34730000      2.37401000      2.51521000
 Ni     -2.63407000     -0.24532200      3.26984000
 Ni      0.35063100      1.96694000     -4.03865000
 Ni     -0.76958600      1.71106000      0.50408600
 Ni     -3.48765000     -2.02169000      1.73900000
 Ni     -0.51965900     -1.54535000      3.76282000
 Ni     -3.70806000      1.07876000     -1.95230000
 Ni      1.32502000     -2.51367000      2.26559000
  C     -1.50825000      2.98547000     -4.16998000
  O     -2.06175000      3.07959000     -5.32979000
  C      2.47971000      4.94842000     -0.47846400
  O      2.50666000      6.06471000     -1.11221000
  C     -4.55943000     -1.19144000     -4.46964000
  O     -5.79761000     -1.27842000     -4.76765000
  C     -1.92207000      2.03022000      4.58939000
  O     -2.05041000      2.60546000      5.76977000
  C     -2.65799000      5.51043000     -1.44913000
  O     -3.21276000      6.64957000     -1.21763000
  C      4.75800000     -0.09504560     -2.41029000
  O      6.00257000     -0.39372500     -2.71646000
  C      1.49597000     -5.46098000     -2.92457000
  O      1.14166000     -6.15797000     -3.95792000
  C      3.28511000     -4.07369000      2.20053000
  O      3.61350000     -5.30755000      2.36259000
  C      0.44717600     -4.26375000      3.30882000
  O      0.82434800     -5.26892000      4.08267000
  C      2.77655000     -4.60127000     -2.81363000
  O      3.81383000     -5.29256000     -3.09918000
  C      1.76980000      2.62625000      5.07878000
  O      1.68107000      3.70243000      5.78673000
  C     -2.13971000      4.39134000     -3.48910000
  O     -2.61096000      5.23804000     -4.35288000
  C      2.36690000      3.19414000     -4.88687000
  O      2.81264000      4.39830000     -5.17383000
  C     -5.06312000     -0.69141300      1.08646000
  O     -6.35111000     -0.44566300      1.42956000
  C     -1.30888000      5.28744000     -2.32312000
  O     -0.60448500      6.29780000     -2.73535000
  C      3.09531000     -3.06790000      3.36205000
  O      3.32256000     -3.32798000      4.60945000
  C     -3.31168000      4.26433000     -2.25255000
  O     -4.55303000      4.25420000     -2.59271000
  C      1.61040000      1.23200000      5.53753000
  O      1.43450000      0.89791000      6.77168000
  C     -3.60502000     -2.32428000     -4.39909000
  O     -4.01955000     -3.26144000     -5.16657000
  C     -5.63731000     -0.13681800     -2.44556000
  O     -6.88376000     -0.42314400     -2.54095000
  C     -0.89433500     -0.75003600     -5.22300000
  O     -0.77739800     -1.05814000     -6.50596000
  C      3.19309000      1.93779000     -4.57704000
  O      4.24736000      2.07318000     -5.29055000
  C     -4.16131000      0.35794700     -4.64964000
  O     -4.23294000      0.70728500     -5.88571000
  C     -3.18579000     -3.93943000     -1.37253000
  O     -3.66473000     -5.17546000     -1.31562000
  C      1.44613000     -3.28876000     -4.64413000
  O      2.26299000     -3.74657000     -5.52040000
  C      3.32869000      4.39476000      2.44528000
  O      3.92460000      5.01606000      3.46844000
  C      1.99299000     -5.89387000     -0.24712500
  O      2.80886000     -6.76220000      0.23388300
  C      3.92271000      0.25970200      4.27101000
  O      4.67715000      0.32428200      5.34618000
  C      1.30725000     -6.31209000     -1.52394000
  O      0.91539800     -7.47542000     -1.92890000
  C      3.35683000      4.90663000      0.71750500
  O      4.42821000      5.56121000      0.93527800
  C      4.36293000      3.20642000      2.01856000
  O      5.57075000      3.68239000      2.07662000
  C     -5.29929000      0.85849200     -3.57106000
  O     -6.05973000      1.75302000     -4.12105000
  C      1.67464000      4.73837000      2.63750000
  O      1.64698000      5.95654000      3.04079000
  C     -3.18346000     -2.60857000      3.62869000
  O     -3.97489000     -3.25944000      4.54878000
  C     -0.04944110     -3.43139000     -4.72267000
  O     -0.79879500     -3.75600000     -5.71221000
  C      0.89623000      3.24439000     -5.27552000
  O      0.20304600      4.00517000     -6.05193000

