#B3LYP/6-31+G(d) OPT FREQ

110, Energy = -10118.46681277 au

0 1
 Ni      0.08126760     -3.46488000     -2.24199000
 Ni     -1.36619000     -0.22883200     -1.15831000
 Ni      0.48222800     -4.15246000      0.21953600
 Ni     -0.48538500      4.15712000     -0.21632000
 Ni     -1.13362000      2.22885000     -1.89735000
 Ni     -3.02798000      0.49471800      0.65599300
 Ni     -0.94620100     -0.86092300      1.28469000
 Ni     -0.07897120      3.46762000      2.23320000
 Ni      0.29485900     -0.96014800     -2.97258000
 Ni      3.02846000     -0.49237000     -0.65648300
 Ni      0.71348300     -1.60763000     -0.53191100
 Ni      2.40835000     -2.32786000     -2.38424000
 Ni      3.28719000      1.97906000     -1.42326000
 Ni      1.81641000     -0.40383700      3.64046000
 Ni      1.36641000      0.22846200      1.15877000
 Ni      2.63897000      0.15672400     -3.13850000
 Ni      1.17838000      3.35993000     -2.05112000
 Ni     -2.04093000     -2.07906000     -2.89195000
 Ni      3.49037000     -1.13131000      1.80948000
 Ni     -1.59321000     -2.69658000     -0.40928500
 Ni      3.72071000      1.33711000      1.05352000
 Ni      0.94625400      0.86079900     -1.28435000
 Ni     -1.81369000      0.40781000     -3.63319000
 Ni     -3.71643000     -1.34969000     -1.05566000
 Ni      2.04291000      2.06778000      2.88696000
 Ni     -0.29442900      0.95680800      2.97598000
 Ni      2.80703000     -2.98380000      0.08637040
 Ni     -1.17910000     -3.36166000      2.05211000
 Ni     -2.80983000      2.98898000     -0.08339300
 Ni      1.58546000      2.68674000      0.40894000
 Ni     -2.41197000      2.32859000      2.39159000
 Ni     -2.63617000     -0.15127900      3.14720000
 Ni      0.53095400      1.52047000     -3.75922000
 Ni     -0.71376000      1.60781000      0.53203500
 Ni     -3.28435000     -1.99320000      1.42693000
 Ni     -0.53089500     -1.51982000      3.76525000
 Ni     -3.48681000      1.13305000     -1.80398000
 Ni      1.13386000     -2.23191000      1.90149000
  C     -4.96848000      1.56790000      3.02187000
  O     -6.19553000      1.76439000      3.34057000
  C      5.93066000      0.86081600     -0.30755200
  O      7.18085000      0.68640300     -0.52229500
  C      4.59463000     -0.25263900      4.21233000
  O      5.55895000     -0.10692700      5.06928000
  C      5.87122000     -0.96403400      2.85611000
  O      6.86728000     -0.81734400      3.65227000
  C     -1.36106000      6.00813000      1.54086000
  O     -1.84961000      7.13215000      1.92162000
  C      2.84342000      1.47018000      6.14259000
  O      3.74148000      1.53727000      7.11379000
  C     -3.58125000      5.37386000      0.32660200
  O     -4.12932000      6.47750000      0.67507400
  C     -1.16292000     -0.29881400      5.93220000
  O     -1.28320000      0.05442910      7.17343000
  C      3.98570000      1.64052000      4.55891000
  O      4.94330000      1.84447000      5.37980000
  C      4.56110000      3.17732000     -3.20595000
  O      5.24069000      3.79027000     -4.10993000
  C     -0.57202400      3.77713000      4.71628000
  O     -0.67947600      4.17909000      5.93332000
  C     -2.69170000     -4.85573000     -1.57918000
  O     -3.32951000     -5.95419000     -1.73550000
  C     -5.37027000      1.65615000      1.08067000
  O     -6.62115000      1.84758000      1.29375000
  C      2.30520000     -5.20704000     -2.60724000
  O      2.80331000     -6.27931000     -3.10407000
  C      5.47520000      2.08605000      2.72259000
  O      6.45088000      2.23878000      3.54663000
  C      2.65473000      4.67244000      2.71031000
  O      3.31549000      5.75731000      2.91329000
  C     -2.98210000      5.00069000      2.23378000
  O     -3.53045000      6.07302000      2.66741000
  C      5.43810000      0.28042300     -2.17377000
  O      6.66886000      0.07857320     -2.48362000
  C      0.22310000      1.12429000      5.62734000
  O      0.11463400      1.55331000      6.84068000
  C     -2.83605000      3.11251000      4.73467000
  O     -2.95230000      3.54980000      5.89917000
  C      5.04394000     -2.51600000     -1.95815000
  O      6.28366000     -2.73381000     -2.22361000
  C     -2.54176000      1.24236000      5.34712000
  O     -2.66665000      1.57409000      6.54606000
  C     -1.42660000     -3.00668000     -5.16028000
  O     -1.39224000     -3.37244000     -6.37636000
  C     -4.75981000     -3.67111000     -1.06455000
  O     -5.45592000     -4.70650000     -1.25665000
  C     -3.67142000     -4.55345000      0.35412600
  O     -4.32388000     -5.64660000      0.23647200
  C      2.07403000     -4.57488000     -4.45033000
  O      2.24178000     -5.05404000     -5.62874000
  C      3.18393000      1.33609000     -5.45556000
  O      3.85403000      1.94914000     -6.36629000
  C     -4.24609000     -3.66227000      3.11388000
  O     -4.95492000     -4.28891000      3.97710000
  C     -3.84633000     -3.89682000     -2.94282000
  O     -4.52690000     -4.96174000     -3.19067000
  C      0.91101300     -4.25563000      3.87058000
  O      1.37848000     -5.14987000      4.66864000
  C     -3.05371000     -2.91831000      4.49776000
  O     -3.71146000     -3.52211000      5.41502000
  C      0.41787500     -3.50365000     -4.82344000
  O      0.55061100     -3.89790000     -6.02638000
  C      1.74143000     -0.18365700      6.20242000
  O      1.61868000      0.24802000      7.40889000
  C      2.22060000     -2.23954000     -5.05221000
  O      2.34860000     -2.63396000     -6.27166000
  C     -1.73459000     -2.25693000      5.88556000
  O     -2.37227000     -2.87981000      6.81551000
  C      2.02489000      3.39825000     -4.91600000
  O      2.68966000      4.00620000     -5.83416000

