#B3LYP/6-31+G(d) OPT FREQ

110, Energy = -12490.25902763 au

0 1
 Ni      0.06349100     -3.47288000     -2.38210000
 Ni     -1.38618000     -0.28700000     -1.19938000
 Ni      0.49711000     -4.88796000      0.32461600
 Ni     -0.62772600      4.73378000     -0.19782300
 Ni     -1.36020000      2.64523000     -2.12770000
 Ni     -3.43223000      0.50526600      0.78468400
 Ni     -1.05339000     -0.92835300      1.27571000
 Ni      0.20025300      3.76359000      2.06788000
 Ni      0.26463900     -1.13640000     -3.20585000
 Ni      3.22980000     -0.56402800     -0.66217600
 Ni      0.72330100     -1.67268000     -0.50757600
 Ni      2.53345000     -2.52672000     -2.50540000
 Ni      3.58362000      2.04005000     -1.64215000
 Ni      2.02905000     -0.31442100      4.08879000
 Ni      1.46822000      0.26569500      1.21201000
 Ni      2.69058000      0.36563500     -3.19466000
 Ni      1.06778000      3.43404000     -2.25667000
 Ni     -2.34015000     -2.06365000     -3.41226000
 Ni      3.43408000     -1.24201000      2.04509000
 Ni     -1.77881000     -2.95295000     -0.47458700
 Ni      4.04229000      1.56687000      0.86007400
 Ni      0.97144900      0.91965400     -1.34288000
 Ni     -1.87266000      0.40899900     -3.62007000
 Ni     -3.84798000     -1.33618000     -0.87059900
 Ni      2.29683000      2.15212000      3.25029000
 Ni     -0.29727200      1.01347000      2.93312000
 Ni      2.86114000     -3.03767000     -0.01200010
 Ni     -1.25494000     -3.60544000      1.91588000
 Ni     -3.17456000      3.46031000      0.13367000
 Ni      1.86218000      3.09203000      0.44365800
 Ni     -2.65682000      2.41015000      2.24129000
 Ni     -2.86311000     -0.41699400      3.29458000
 Ni      0.39453400      1.55619000     -3.92778000
 Ni     -0.77878000      1.74995000      0.43768900
 Ni     -3.65537000     -2.25562000      1.53863000
 Ni     -0.49811900     -1.53251000      3.71875000
 Ni     -3.46513000      1.21120000     -1.74219000
 Ni      1.24631000     -2.64608000      2.15584000
  C      5.19339000     -1.43857000     -0.80204400
  O      6.10494000     -2.33465000     -0.88194900
  C      0.18873100      4.36357000     -4.23843000
  O      0.68953100      5.47499000     -4.63238000
  C      3.30174000      3.26860000     -4.08461000
  O      3.19630000      4.18924000     -4.94991000
  C     -1.91214000      5.30454000     -2.04908000
  O     -1.37969000      6.31807000     -2.62999000
  C      0.91485800      5.42060000      0.59488200
  O      1.49050000      6.65715000      0.68844400
  C     -4.13968000     -1.80770000     -4.04883000
  O     -4.90313000     -2.75402000     -4.50923000
  C      5.63764000      1.07933000     -0.38227300
  O      6.80069000      1.55405000     -0.11060000
  C      3.30464000     -4.46540000     -2.36306000
  O      3.85447000     -5.30317000     -3.15660000
  C     -1.38154000     -2.53142000     -5.02572000
  O     -1.96349000     -2.63607000     -6.16951000
  C     -2.47469000     -5.36056000      0.88844200
  O     -2.94153000     -6.31213000      1.60999000
  C      1.30098000     -5.96009000     -1.47494000
  O      1.42920000     -6.55737000     -2.60421000
  C      1.19487000      0.36420800      5.80161000
  O      0.77544100     -0.10758100      6.91900000
  C      1.61864000     -6.40818000     -0.17489300
  O      2.22053000     -7.45348000      0.27619000
  C      5.66551000     -0.12609700     -1.39182000
  O      6.45485000      0.00670309     -2.41423000
  C     -1.23749000     -5.59679000     -0.05899950
  O     -1.40019000     -6.79359000     -0.51110200
  C     -4.06502000     -2.73656000      3.53940000
  O     -4.51035000     -3.85924000      3.99777000
  C     -3.42222000     -4.11948000      0.41143700
  O     -4.46387000     -4.75083000     -0.01272520
  C      4.09067000      3.49802000      0.64889800
  O      4.85155000      4.56574000      0.97421100
  C     -3.09007000      4.12217000     -2.51047000
  O     -3.99632000      4.00527000     -3.41618000
  C     -0.40319700      3.09827000     -5.23981000
  O     -0.62369900      3.04555000     -6.50459000
  C      3.72767000      1.02491000      4.22503000
  O      4.63233000      1.26777000      5.19242000
  C     -1.34797000      3.89641000     -4.22571000
  O     -2.24853000      4.67346000     -4.71451000
  C     -3.01292000      5.09692000      1.24892000
  O     -3.83676000      5.65080000      2.07611000
  C     -1.97983000      5.95323000      0.58802300
  O     -1.95939000      7.22037000      0.36782700
  C      2.99559000     -2.44578000      3.67721000
  O      3.65637000     -3.38160000      4.43557000
  C      4.23477000      2.18165000     -3.79786000
  O      5.32536000      2.08175000     -4.48908000
  C      0.07773820     -2.77691000     -4.67205000
  O      0.81984500     -3.23682000     -5.63002000
  C     -4.54088000     -0.44324000     -4.10763000
  O     -5.54574000      0.18145500     -4.57814000
  C     -3.39143000      5.21130000     -1.36351000
  O     -4.32705000      6.06723000     -1.18243000
  C     -4.55856000      2.69548000      1.25793000
  O     -5.76438000      3.01560000      1.57247000
  C     -3.90018000     -1.61139000      4.47420000
  O     -4.28845000     -1.48174000      5.69481000
  C      1.23418000     -4.53379000      2.89050000
  O      1.49507000     -4.86848000      4.11436000
  C      1.46710000      1.73913000      5.37316000
  O      1.54945000      2.71500000      6.20791000
  C      2.23926000      4.27997000      2.57053000
  O      2.89518000      5.45390000      2.81454000
  C      1.06926000     -5.66013000      1.92710000
  O      1.25786000     -6.89544000      2.23950000
  C     -5.09627000     -0.82569000      0.84627500
  O     -6.34799000     -0.63751500      1.09244000

