#B3LYP/6-31+G(d) OPT FREQ

110, Energy = -12130.10778510 au

0 1
 Ni      0.31278900     -3.50014000     -2.49342000
 Ni     -1.32572000     -0.22475900     -1.19329000
 Ni      0.70668200     -4.49312000      0.34825900
 Ni     -0.48409800      4.68840000     -0.34048400
 Ni     -1.22164000      2.52849000     -1.98965000
 Ni     -2.98510000      0.55601500      0.64653300
 Ni     -0.88446200     -0.91752300      1.34291000
 Ni     -0.05830140      3.89862000      2.49383000
 Ni      0.35498600     -1.08677000     -3.25035000
 Ni      3.22824000     -0.62668700     -0.72889200
 Ni      0.82028400     -1.70843000     -0.54988700
 Ni      2.66984000     -2.50445000     -2.58937000
 Ni      3.58045000      1.86297000     -1.50824000
 Ni      1.94047000     -0.23959500      3.96089000
 Ni      1.49419000      0.24524000      1.21694000
 Ni      2.56516000      0.04142370     -3.37555000
 Ni      1.24231000      3.45088000     -1.91879000
 Ni     -2.09690000     -2.26063000     -2.89470000
 Ni      3.74057000     -1.24408000      1.74264000
 Ni     -1.54658000     -2.80346000     -0.47857400
 Ni      3.98798000      1.37167000      1.00266000
 Ni      1.01269000      0.87976200     -1.31569000
 Ni     -1.77851000      0.39256000     -3.60636000
 Ni     -3.68310000     -1.38717000     -1.10420000
 Ni      2.26865000      2.40132000      3.12554000
 Ni     -0.14505000      1.06792000      3.16140000
 Ni      2.97544000     -3.34741000      0.13346400
 Ni     -1.29406000     -3.66270000      1.95299000
 Ni     -2.83197000      3.26764000     -0.29851900
 Ni      1.77295000      2.96346000      0.46928000
 Ni     -2.34270000      2.47935000      2.67319000
 Ni     -2.58258000     -0.06901400      3.22333000
 Ni      0.59280200      1.62766000     -3.84968000
 Ni     -0.67829900      1.75669000      0.56374000
 Ni     -3.24138000     -2.06794000      1.42317000
 Ni     -0.46602100     -1.72185000      3.91319000
 Ni     -3.49031000      1.39888000     -1.92608000
 Ni      1.28418000     -2.52365000      2.08793000
  C     -3.44162000     -3.95829000     -2.20110000
  O     -4.00359000     -5.00691000     -2.70230000
  C      2.82783000      4.98559000      1.88838000
  O      3.52905000      6.09253000      2.03495000
  C     -3.06219000     -4.95273000      1.17156000
  O     -4.24882000     -5.40455000      0.98412200
  C      1.09745000     -3.50958000     -4.39636000
  O      1.37795000     -4.35874000     -5.32038000
  C      1.87240000     -1.14272000     -5.11720000
  O      2.28045000     -1.09014000     -6.33308000
  C      5.82336000      1.29332000     -0.54395400
  O      7.10135000      1.09962000     -0.40138200
  C      2.58888000      4.30857000      4.55886000
  O      3.38204000      5.32376000      4.54664000
  C      1.37131000      5.14643000      2.55726000
  O      1.23677000      6.29306000      3.12528000
  C      2.28373000     -5.35595000     -1.17747000
  O      2.80630000     -6.54613000     -1.38718000
  C      1.16522000      5.75798000     -0.37778200
  O      1.29895000      7.03901000     -0.39556400
  C     -3.67512000      3.31003000     -2.85161000
  O     -4.13760000      3.79294000     -3.95102000
  C     -2.56705000      2.46983000      4.75494000
  O     -3.13836000      2.53539000      5.90808000
  C      1.15839000     -3.42171000      4.39000000
  O      1.37181000     -3.85193000      5.59250000
  C      3.50054000     -4.64129000      1.45494000
  O      4.55682000     -4.98557000      2.09831000
  C     -1.81334000      4.91208000     -2.06658000
  O     -1.80901000      5.79204000     -3.00651000
  C     -1.63402000      3.56878000      4.44926000
  O     -1.48741000      4.40931000      5.41946000
  C      6.02350000     -0.78495500      1.16238000
  O      7.22186000     -0.32159500      1.12067000
  C     -3.38190000      4.58338000     -1.98549000
  O     -4.26899000      5.52107000     -1.84493000
  C      4.71805000     -2.71757000     -3.18383000
  O      5.64115000     -2.37325000     -4.01639000
  C      3.78935000      3.71633000      2.27670000
  O      4.89542000      4.20314000      2.71516000
  C      2.05580000     -4.09328000      3.48200000
  O      2.74819000     -5.14390000      3.73694000
  C      2.47612000      5.10408000      0.12590200
  O      3.65563000      5.44318000     -0.25323700
  C     -2.27940000     -3.03939000      4.67897000
  O     -2.71951000     -3.50165000      5.79695000
  C      5.49369000      1.63523000     -1.90448000
  O      6.39440000      1.78575000     -2.81874000
  C      0.98581200     -5.71109000      1.94339000
  O      0.58092400     -6.54612000      2.82655000
  C      5.29886000     -1.36184000     -0.79344800
  O      6.45692000     -1.73169000     -1.27709000
  C      3.75056000      0.68700800      4.78065000
  O      4.56343000      0.51740600      5.74078000
  C     -1.87042000     -5.72790000      1.15455000
  O     -1.73052000     -6.98739000      0.96754700
  C      2.46702000     -5.77928000      1.53932000
  O      2.84564000     -7.02972000      1.53071000
  C      5.72291000     -2.10858000      1.65214000
  O      6.62597000     -3.01966000      1.66979000
  C      0.77031900     -2.25359000     -5.28252000
  O     -0.06182840     -2.31567000     -6.25662000
  C      0.93471700      0.56647400      5.69896000
  O      1.06682000      0.40975800      6.96820000
  C      1.02845000      1.99439000      5.22074000
  O      1.09233000      2.90505000      6.12263000
  C      4.81446000     -3.67319000     -2.16697000
  O      5.81453000     -4.27609000     -1.64381000
  C      2.34985000      2.30566000     -5.24603000
  O      2.60401000      3.10015000     -6.21993000
  C     -1.43302000      5.71527000      1.36520000
  O     -1.90555000      6.95025000      1.54391000

