#B3LYP/6-31+G(d) OPT FREQ

110, Energy = -11501.00839663 au

0 1
 Ni      0.06716200     -3.48085000     -2.19745000
 Ni     -1.41683000     -0.23560300     -1.15581000
 Ni      0.69038000     -4.36277000      0.39455300
 Ni     -0.63112900      4.34102000     -0.19947700
 Ni     -1.12141000      2.34174000     -1.95892000
 Ni     -3.24319000      0.46809800      0.68778800
 Ni     -0.96801600     -0.89967600      1.34838000
 Ni     -0.14704100      3.72982000      2.25596000
 Ni      0.35200000     -0.92557900     -3.05036000
 Ni      3.12994000     -0.57515800     -0.63324900
 Ni      0.75973100     -1.66658000     -0.48435100
 Ni      2.44249000     -2.44358000     -2.45126000
 Ni      3.29787000      2.08105000     -1.61790000
 Ni      2.06251000     -0.28499400      3.94274000
 Ni      1.42964000      0.19895300      1.22816000
 Ni      2.69033000      0.30614100     -3.40322000
 Ni      1.21412000      3.51497000     -2.38341000
 Ni     -2.14021000     -2.12732000     -2.87480000
 Ni      3.83616000     -1.26911000      2.05970000
 Ni     -1.64670000     -2.71483000     -0.36783800
 Ni      3.87232000      1.28028000      1.21980000
 Ni      0.97877300      0.89763000     -1.34096000
 Ni     -1.78166000      0.49971000     -3.69352000
 Ni     -4.18043000     -1.24037000     -1.13352000
 Ni      2.31971000      2.26189000      2.99255000
 Ni     -0.23452300      0.94019100      3.05391000
 Ni      3.07581000     -3.33845000      0.22644100
 Ni     -1.10026000     -3.49500000      2.22275000
 Ni     -2.89850000      2.95507000     -0.10349300
 Ni      1.64664000      2.79312000      0.46094000
 Ni     -2.39607000      2.31291000      2.37030000
 Ni     -2.63367000     -0.17103700      3.35662000
 Ni      0.58957000      1.85567000     -4.23755000
 Ni     -0.71966500      1.62741000      0.54254600
 Ni     -3.53172000     -1.93806000      1.40954000
 Ni     -0.48507600     -1.57548000      3.98257000
 Ni     -3.56703000      1.05454000     -1.83863000
 Ni      1.28951000     -2.46460000      2.08963000
  C      4.07835000     -3.37121000      2.58079000
  O      4.72882000     -4.15571000      3.48358000
  C      0.77132700      0.09944370      5.86091000
  O      0.93974600      0.51403900      7.04303000
  C     -0.90017700      2.84041000     -5.30711000
  O     -1.54176000      3.23795000     -6.36589000
  C      3.11614000     -5.29218000      1.02895000
  O      3.90367000     -6.08074000      1.64225000
  C     -5.37249000     -1.48308000     -2.82343000
  O     -6.42463000     -2.20824000     -3.24032000
  C      4.71053000      0.68692100      4.36480000
  O      5.87079000      0.97359700      4.90192000
  C     -4.97064000     -0.35842900     -3.56652000
  O     -5.54628000     -0.03780910     -4.72526000
  C      4.67015000     -1.01771000      4.04428000
  O      5.51918000     -1.46800000      4.87199000
  C      1.59566000     -4.78613000      2.99690000
  O      2.62792000     -5.22295000      3.62706000
  C     -0.54096700     -5.88449000      2.70329000
  O     -0.13848500     -6.50699000      3.75494000
  C      1.67144000     -5.76322000      1.69400000
  O      1.45784000     -7.06352000      1.87282000
  C      2.50391000      4.48429000     -3.62123000
  O      2.71019000      5.38741000     -4.51383000
  C      0.73144400     -4.09861000      4.23642000
  O      1.44741000     -4.57281000      5.20941000
  C     -1.69410000     -0.11842400      5.60439000
  O     -1.83663000      0.21709400      6.87261000
  C     -1.22053000      5.56455000      2.82897000
  O     -1.60348000      6.23305000      3.84167000
  C      3.69119000      1.79441000     -4.66815000
  O      4.62232000      1.56677000     -5.51950000
  C     -2.82499000     -4.43284000     -2.76051000
  O     -3.66556000     -5.32058000     -3.17528000
  C      5.61764000      0.43553500      2.47124000
  O      6.97545000      0.54193000      2.81826000
  C      4.13655000      2.28066000      3.96066000
  O      4.79478000      3.11698000      4.71413000
  C     -0.71941100     -4.03062000      4.82812000
  O     -0.95541600     -4.78198000      5.85228000
  C      2.19290000     -2.39806000     -4.85929000
  O      2.46883000     -3.03221000     -5.94949000
  C     -4.16434000     -4.18833000      0.73544500
  O     -5.06138000     -5.11419000      0.80601300
  C      1.21134000      0.17730700     -5.77189000
  O      1.19043000      0.09563000     -7.03930000
  C     -5.93171000     -0.65759100     -0.23266300
  O     -7.07902000     -0.33005900     -0.65804200
  C      2.70250000     -5.14220000     -1.51145000
  O      3.30005000     -6.24919000     -1.79946000
  C     -5.62154000     -0.79144300      1.13179000
  O     -6.55261000     -0.57240900      1.99442000
  C     -5.24408000      1.92350000      0.54776400
  O     -6.45481000      1.93115000      0.90705600
  C     -3.83326000     -1.76403000      4.62751000
  O     -4.50831000     -2.01638000      5.69843000
  C      5.24949000     -2.11418000     -0.04041770
  O      6.46457000     -2.40456000     -0.29755700
  C     -0.24252200      3.74429000     -4.66647000
  O     -0.25312800      4.90255000     -5.13810000
  C      3.64697000      3.42877000     -3.80516000
  O      4.83961000      3.88701000     -4.05040000
  C      2.42344000      2.53381000     -5.09163000
  O      2.48519000      3.35277000     -6.11285000
  C     -1.81130000      4.99708000     -2.21359000
  O     -2.18105000      6.02725000     -2.87183000
  C      2.66279000      4.47258000      2.10427000
  O      3.41616000      5.50539000      2.30605000
  C     -1.37148000      5.90563000      1.53993000
  O     -1.88950000      7.02327000      1.25039000
  C      3.37269000      0.41902200      5.23646000
  O      3.90730000      0.39893200      6.43258000

