#B3LYP/6-31+G(d) OPT FREQ

14, Energy =    -51.79746022 au

0 1
 Co      2.04333001     -0.09120871      0.57607031
 Co      0.38861535     -0.45584303     -1.20541165
 Co     -2.07046681     -0.83972977     -2.97418977
 Co     -0.07069587     -1.65410456      1.00810671
 Co     -0.03634943      2.09527678     -0.26222764
 Co     -1.86830909      0.59979576      0.03657733
 Te     -1.91521508     -0.57228822      2.12775436
 Te      1.99145120     -1.85277891      2.20742435
 Te      1.68858216      2.15185378      1.36872425
 Te      1.99380707      1.37477435     -1.37785184
 Te      1.80185424     -2.31933839     -0.43976700
 Te     -1.14351634      2.05943534      1.91635110
 Te     -1.70326260     -1.68536241     -0.77309284
 Te     -1.09982480      1.18951800     -2.20846769

