#B3LYP/6-31+G(d) OPT FREQ

14, Energy =    -51.73310401 au

0 1
 Co      0.88595720     -1.34770170     -0.25035777
 Co     -0.64150712      0.82403733     -0.71653173
 Co      1.95598548      0.88680494     -0.55324021
 Co      0.80964814     -2.18289350      2.16581728
 Co      0.49745232      2.09165580     -2.71400590
 Co      0.62422201      1.57778164      1.56678473
 Te      2.24852485     -0.28918748      1.54046685
 Te     -2.85212632     -0.13544589     -0.32953144
 Te     -2.73809992     -2.88072860     -0.43668377
 Te      0.77434455      3.00436344     -0.51406466
 Te     -0.19248111     -3.40689535      0.33413161
 Te     -0.69176831     -0.42245525      1.44063119
 Te     -1.54413212      2.52357430      0.84273732
 Te      0.86398036     -0.24290968     -2.37615351

