#B3LYP/6-31+G(d) OPT FREQ

14, Energy =    -51.70862778 au

0 1
 Co     -1.72250438     -1.60012966      0.70199815
 Co     -0.86718196      0.70911554     -1.43291923
 Co      0.65980569     -0.06035564      0.55124292
 Co      0.86903219      2.04755952     -1.93260962
 Co     -2.15699698      1.16741273      0.69925061
 Co      2.09330107     -1.02220499     -1.38032749
 Te     -2.95332898     -0.34497221     -0.97665500
 Te      1.93888332     -3.42359209     -0.99103541
 Te     -0.28455305     -1.66051389     -1.23583292
 Te      2.51325869     -1.60937299      0.94830383
 Te     -1.76580734      2.46193802      2.68840072
 Te      2.54559287      1.15275311     -0.45997773
 Te     -0.88495747     -0.12340713      2.42640768
 Te      0.01545635      2.30576969      0.39375349

