#B3LYP/6-31+G(d) OPT FREQ

14, Energy =    -51.76770053 au

0 1
 Co      1.97125498      0.18387528      0.39636767
 Co      0.19373724      2.18547894      0.01645530
 Co     -0.76296799     -0.10845315      1.33291331
 Co     -2.79808739     -0.96662510     -0.22053150
 Co     -0.30851028     -0.69089864     -1.02751715
 Co     -0.82336104      1.76494086     -2.67516693
 Te      0.92766704      1.48059239      2.22313701
 Te     -1.87587741      1.18249409     -0.59656989
 Te      1.16482682     -1.49052301      1.97138075
 Te      1.28516130      0.97093997     -1.83063495
 Te     -1.90221665     -2.21236754      1.68560344
 Te      1.70850204     -2.02147420     -0.62662662
 Te     -1.37033713     -2.83039503     -0.90888342
 Te      2.59020848      2.55241514      0.26007298

