#B3LYP/6-31+G(d) OPT FREQ

14, Energy =    -51.42858071 au

0 1
 Co      3.61509077      0.45954938      0.00000000
 Co     -3.39649612     -0.32933063     -0.00000000
 Co      4.09034092     -1.97321593     -0.00000000
 Co      0.00079933      2.93102048     -0.00000000
 Co      2.01709214     -1.29871926      0.00000000
 Co     -3.78196467      2.42400456     -0.00000000
 Te     -5.54178876      0.84505615      0.00000000
 Te     -2.55460900     -2.56077705      0.00000000
 Te     -5.40471959     -1.83526669     -0.00000000
 Te     -1.70136635      1.30722717      0.00000000
 Te      5.32710715      2.15613815      0.00000000
 Te      5.88483195     -0.45419154      0.00000000
 Te      1.31612625      0.96542112     -0.00000000
 Te      0.12955598     -2.63691590     -0.00000000

