#B3LYP/6-31+G(d) OPT FREQ

14, Energy =    -51.71498404 au

0 1
 Co     -0.94210339     -1.01344081      0.36744771
 Co      2.28867994     -0.53883502     -1.52664115
 Co      0.67847531     -2.55369301     -0.90216590
 Co      0.60676060      1.10965087     -0.17980625
 Co      0.54726100      3.51476110     -2.32438744
 Co      0.37161646     -0.00255327      2.52598289
 Te     -1.38230820      1.19934583      1.28635450
 Te     -1.17562778     -1.88536525      2.63606833
 Te     -1.70519000     -2.68620783     -1.13981291
 Te     -0.15859115     -0.48103193     -1.97956337
 Te      2.07418864      1.76464771     -2.02273854
 Te      1.56180211     -0.99092587      0.72176765
 Te     -1.55049517      0.38572902      4.00995415
 Te     -1.21446837      2.17791848     -1.47245966

