#B3LYP/6-31+G(d) OPT FREQ

14, Energy =    -51.82984076 au

0 1
 Co     -1.20107014     -0.63699472      2.04446627
 Co     -1.85638658      1.58310857      0.28386410
 Co     -0.27065402      0.30161586     -1.56395799
 Co      1.77872442     -1.37658970     -2.39622349
 Co      1.22379196      0.70965317      0.43933890
 Co      0.28685373     -1.58886415     -0.06431954
 Te     -0.32179687      1.62484398      2.16700578
 Te     -3.10646017      0.80849799      2.17476893
 Te      1.14233191     -1.04642202      2.17838782
 Te      2.74847296     -1.15864897     -0.16103171
 Te      2.11580711      0.98706604     -1.86325607
 Te     -2.08364826     -0.79596015     -0.22894838
 Te      0.07291734      2.57924462     -0.69748443
 Te     -0.52888339     -1.99055048     -2.31261019

