#B3LYP/6-31+G(d) OPT FREQ

14, Energy =    -51.68637202 au

0 1
 Co     -1.61841676     -0.35479471     -0.07917978
 Co      0.98488826      1.41827340      0.91145212
 Co      1.60776750     -3.01087574     -1.21162968
 Co     -1.61657463      2.01523396      0.66649506
 Co      1.05170886     -0.71340227     -0.37389287
 Co      0.71698882      3.43321900     -1.76467487
 Te     -3.24282516      0.44534114      1.49065229
 Te      0.91811013     -0.64881006      2.15575241
 Te      0.94827877     -1.22635085     -2.78549894
 Te     -0.79183168     -2.37142907     -1.02956723
 Te     -0.18333511      1.23682832     -1.24508553
 Te      0.15408586      3.62016477      0.56345183
 Te     -1.63529004     -1.72987136      1.95003129
 Te      2.70644517     -2.11352653      0.75169390

