#B3LYP/6-31+G(d) OPT FREQ

14, Energy =    -51.72323320 au

0 1
 Co     -1.56725205      0.03717462      1.72132867
 Co      0.03827244      2.11352631      1.70526564
 Co      2.51896620      0.67372738      0.46866413
 Co      0.23731933      0.03856338     -0.39010324
 Co     -2.30616478     -0.38820016     -0.95226458
 Co      1.43014027     -2.02701604      0.59802438
 Te     -2.32282183      2.24299767      2.33692220
 Te      0.89387260     -0.12152183      2.03328339
 Te      2.19050576     -0.89120244     -1.46910024
 Te     -1.00657802     -1.95345098      0.42624359
 Te     -0.55912330     -0.20618364     -2.68883219
 Te     -1.96691251     -2.46780057     -2.20032239
 Te     -1.49010815      1.76499914     -0.23031330
 Te      3.90988406      1.18438714     -1.35879606

