#B3LYP/6-31+G(d) OPT FREQ

14, Energy =    -51.75690938 au

0 1
 Co      0.85981300     -0.46479053     -1.28835285
 Co     -0.87263597      1.97369999      1.61032727
 Co      1.88890041     -1.19664655      1.20281067
 Co     -0.83254929     -0.42988937      0.45731408
 Co      0.07643799      2.23917765     -0.90845342
 Co     -2.01985186      1.19546941     -1.37524566
 Te     -2.03133654      3.23788167     -0.10122197
 Te      0.38973537     -2.54329017     -0.08539409
 Te     -2.88868517      0.77183808      0.89645111
 Te      2.90310830     -2.30410602      3.03950455
 Te      1.17693087      1.01041218      0.80100859
 Te     -1.51746543     -1.15459485     -1.82527505
 Te      3.04817016     -3.30090229      0.55854789
 Te     -0.18057184      0.96574079     -2.98202112

