#B3LYP/6-31+G(d) OPT FREQ

14, Energy =    -51.73733584 au

0 1
 Co     -1.50217692     -2.00375824      1.69371039
 Co      1.77273999      3.08217697     -0.24552561
 Co     -0.14267947     -1.23621634     -0.76206751
 Co      0.78612317      0.33865328      1.50287375
 Co     -0.93567861      1.34269274     -0.84849230
 Co     -1.58487153      0.89830637      2.00641577
 Te     -1.42797687     -0.26887117     -2.64487215
 Te      2.83702645     -0.33477803     -2.86761388
 Te     -0.14611940      2.59807209      1.10050090
 Te      0.70106809     -1.96259881     -2.95688844
 Te      0.89650224     -2.10177677      1.28642874
 Te     -0.33671296     -0.70364536      3.37618370
 Te     -2.34272291     -0.41639739      0.13519037
 Te      1.42547874      0.76814065     -0.77584376

