#B3LYP/6-31+G(d) OPT FREQ

14, Energy =    -51.79514479 au

0 1
 Co      2.04632211      0.43641067      0.90972935
 Co      0.95213050     -1.26614509     -1.07286491
 Co      0.65561124      1.30509972     -1.42428280
 Co     -1.38423238      0.92970485      0.30427926
 Co     -0.21196984      0.94308954      2.66353611
 Co     -2.06300998     -1.55412832      0.35851130
 Te      0.53827641      2.31606678      0.80183084
 Te     -2.47960525     -0.00446949      2.29473319
 Te      2.92816313      0.21151091     -1.36273253
 Te      1.07230452     -0.22734359     -3.35125052
 Te      0.14009977     -1.02462056      1.24487069
 Te     -3.72367540      0.19040682     -0.12048656
 Te      2.78242912     -1.88354945      0.48441483
 Te     -1.25284396     -0.37203281     -1.73028826

