#B3LYP/6-31+G(d) OPT FREQ

14, Energy =    -51.78818106 au

0 1
 Co     -2.87109289      0.41327448      1.16345688
 Co      2.56781929      0.08440415     -0.03500690
 Co     -1.42186544      1.50926298     -1.81170419
 Co      0.83941135     -0.07224401      2.63204378
 Co     -0.25083872      0.37024360      0.48151177
 Co      0.21404193     -1.27094869     -1.51799946
 Te     -0.90386441     -0.26134934     -3.43640019
 Te     -1.05966596      1.56177096      2.42325540
 Te      2.61571762     -1.68828134     -1.68965051
 Te      0.93640010      1.06853435     -1.55077543
 Te     -1.35388440     -1.17720509      2.24819133
 Te     -2.06660987     -0.64102831     -0.88734509
 Te      1.12941461     -1.74777141      0.68655922
 Te      1.62501678      1.85133768      1.29386341

