#B3LYP/6-31+G(d) OPT FREQ

14, Energy =    -51.79014960 au

0 1
 Co     -0.14205233     -0.60475422      0.69621597
 Co      1.99004356      0.97583316      0.31900083
 Co     -0.76274603      1.72518320      0.23013801
 Co      0.57874066      0.15133842     -1.86762769
 Co      0.01427307     -3.07560307      0.27929976
 Co     -1.59294997      0.14291443      2.66764843
 Te      2.99881479      0.70568649     -1.90327602
 Te      0.52747980      1.17700232      2.23680098
 Te     -1.34548275     -2.20308031      2.10045700
 Te     -2.51634383      0.02409307      0.42036836
 Te     -1.01916246     -1.63167848     -1.36343413
 Te      1.80990218     -1.44323196     -0.40930087
 Te      0.96269634      2.54001374     -1.33964220
 Te     -1.50321303      1.51628321     -2.06664840

