#B3LYP/6-31+G(d) OPT FREQ

14, Energy =    -51.83076898 au

0 1
 Co      2.60723860     -0.79928317     -1.42334711
 Co     -1.56511113     -0.28519970     -0.83358887
 Co     -0.17803885      1.85693611     -1.39188733
 Co     -1.19787626      0.57182524      1.50010902
 Co     -0.25287480     -1.72736966      1.23781328
 Co      1.13312433      0.43309378      0.20665044
 Te     -2.31051143      1.93964650     -0.20724966
 Te      0.87381375     -0.04469406      2.59935730
 Te     -2.70239945     -1.31925909      1.09369949
 Te      0.35823235     -0.36724471     -2.23891985
 Te      0.13071899      2.52757893      0.97883758
 Te      2.25262563      1.64168792     -1.58449783
 Te      2.14304089     -1.73315935      0.80460088
 Te     -1.29198261     -2.69455874     -0.74157734

