#B3LYP/6-31+G(d) OPT FREQ

14, Energy =    -51.74676287 au

0 1
 Co      2.06976850     -1.32980717     -2.30661078
 Co     -2.07424438      2.59537920      0.83716165
 Co     -0.66660854     -0.77077756     -1.59801009
 Co      1.72271940      0.72565859     -0.31393768
 Co     -0.80238571     -1.02965384      2.69490370
 Co     -0.65508102      0.47374560      0.66869626
 Te      1.33243983     -0.12137430      1.97280903
 Te     -1.90313381      1.30392437     -1.28087211
 Te      2.73663132     -1.50524343      0.05448004
 Te     -1.42401278     -1.84672321      0.49255994
 Te      0.56484457     -2.86405223     -1.11106275
 Te      0.21022707      2.62649423     -0.14454681
 Te     -2.03368314      1.00381577      2.61319018
 Te      0.92251868      0.73861398     -2.57876058

