#B3LYP/6-31+G(d) OPT FREQ

14, Energy =    -51.78558033 au

0 1
 Co     -0.88558586     -2.01637635     -0.92048283
 Co      0.63646086      0.18862291     -2.35533440
 Co      0.40679243     -0.09899785      0.41480575
 Co     -0.65436225      2.13928204     -0.35676982
 Co     -2.25275713      0.05645736      0.86521665
 Co      3.11363056     -0.20471102     -0.14418339
 Te      0.72794097      3.63824815      0.93970274
 Te     -3.20918366     -1.90515837     -0.16684951
 Te      1.49648759     -1.76314239     -1.15622654
 Te     -1.61137916      0.24492302     -1.48260780
 Te      2.02974994     -1.48510010      1.61258452
 Te     -0.60072121      1.42842076      2.00547585
 Te     -0.90984737     -1.88773028      1.50257899
 Te      1.71277429      1.66526211     -0.75791022

