#B3LYP/6-31+G(d) OPT FREQ

14, Energy =    -51.68431539 au

0 1
 Co     -1.69269905      1.34512238     -1.83006235
 Co     -1.17071233      0.69795450      0.59487119
 Co      2.15252296     -0.97790807     -1.46159520
 Co      0.63389391     -1.24643654      0.77561861
 Co      2.91088305     -0.13187909      1.00845285
 Co      1.37325092      1.17332767     -0.67499805
 Te     -0.22685279     -0.53604106     -1.42069262
 Te     -0.36088706      2.81918974     -0.36731734
 Te      0.50434354      1.79385328     -2.87860763
 Te     -1.73816129     -1.65317967      1.15946506
 Te     -2.81335720     -1.89118744      3.53129595
 Te     -3.22471774     -0.03622126     -0.52383193
 Te      2.70067654     -2.39031670      0.37425195
 Te      0.95181654      1.03372227      1.71314949

