#B3LYP/6-31+G(d) OPT FREQ

62, Energy =    -96.25957059 au

0 1
  N      0.80201904      4.29897679      3.92640870
  C     -0.43271574      4.10023825      4.36965129
  N     -0.45418552      4.24294531      5.68689076
  C      0.81233310      4.53690577      6.10018584
  C      1.60068250      4.57531914      4.99476729
  C      1.22543899      4.20960876      2.55297377
  C      1.11840892      5.57118742      1.88025243
  C     -1.63495897      4.14157948      6.49241420
  H     -1.29334484      3.90416382      3.76494082
  H      1.06115712      4.68887694      7.12982005
  H      2.63646315      4.82085306      4.88191301
  H      2.25984121      3.85923184      2.54036518
  H      0.59400732      3.46664421      2.05952543
  H      1.40836033      5.50035014      0.83525815
  H      1.77755373      6.27515918      2.38669902
  H      0.09401517      5.93118514      1.94577262
  H     -2.32742161      4.92821671      6.17997642
  H     -1.37912172      4.26104421      7.54270933
  H     -2.10024668      3.16867455      6.33146757
  N      0.01642688      8.66736099      5.73169303
  C      0.26770956      8.18716037      4.51715919
  N      0.19435294      9.17975124      3.63805525
  C     -0.11836092     10.32556605      4.30989510
  C     -0.23025024     10.00389403      5.62336118
  C      0.02425232      7.88213083      6.93583921
  C      1.44937230      7.72410729      7.45338217
  C      0.50097209      9.06109951      2.24331759
  H      0.53062907      7.17749098      4.29470746
  H     -0.23545671     11.26586745      3.81138710
  H     -0.46742065     10.61273083      6.47192239
  H     -0.61248771      8.37622404      7.67459377
  H     -0.41413037      6.91522902      6.67997197
  H      1.48189938      7.01029099      8.27108862
  H      1.83210404      8.67822995      7.80970006
  H      2.09199022      7.37964592      6.64586244
  H      1.51108711      8.65289951      2.15571256
  H      0.45084884     10.04036131      1.77288008
  H     -0.20372254      8.38306524      1.76255691
  N      1.09653390      0.87241665      8.45664889
  C      1.11318452      0.78159111      7.12914946
  N      1.99959860     -0.14617524      6.77375700
  C      2.56355932     -0.65365571      7.91195906
  C      1.99177099     -0.01483568      8.96788147
  C      0.24699516      1.72636690      9.25088448
  C     -1.20518356      1.27396349      9.15601399
  C      2.28913824     -0.51892062      5.41822728
  H      0.50480153      1.31031695      6.40914269
  H      3.31268512     -1.41759842      7.88430933
  H      2.13049067     -0.07197100     10.04158650
  H      0.60596994      1.64664603     10.28809707
  H      0.35239561      2.75361841      8.89329292
  H     -1.83546378      1.94955613      9.72700098
  H     -1.30637975      0.27662567      9.57530024
  H     -1.54438792      1.25926502      8.12162986
  H      2.20971946     -1.59972066      5.29966739
  H      3.29656308     -0.20317948      5.14211377
  H      1.56103763     -0.02254086      4.77080689
 Cl      2.96449928      7.65202449      4.10894985
 Cl     -1.98544008      6.68797760      4.36726460
 Cl      1.70260087      0.74168114     12.02430601
 Cl     32.24616940     -9.40571761    -15.10297407
 Cl     -0.27730062      1.38345867      4.34556509

