#B3LYP/6-31+G(d) OPT FREQ

62, Energy =    -96.26341706 au

0 1
  N      6.52766627      2.70693291      5.69690681
  C      7.37374957      1.94078027      6.37428519
  N      7.81938233      0.98042791      5.57011299
  C      7.24335302      1.14038155      4.34597065
  C      6.43356053      2.23211359      4.42509901
  C      5.86052751      3.87386015      6.21561412
  C      6.57452272      5.14266758      5.76220683
  C      8.73649639     -0.06852790      5.91068272
  H      7.55828198      2.05226809      7.43973608
  H      7.49474680      0.48686296      3.53434316
  H      5.75934670      2.66415864      3.71473622
  H      4.83266530      3.85359767      5.83674669
  H      5.87304274      3.80068372      7.30448146
  H      6.05677628      6.00954415      6.16149444
  H      6.58165400      5.21402865      4.67663067
  H      7.60093893      5.15330477      6.12430769
  H      9.44037606      0.28599321      6.66054676
  H      9.26258868     -0.37329186      5.00086344
  H      8.19559320     -0.92712976      6.31242549
  N      9.87331004      2.78541723      1.42580391
  C      9.92551999      3.83536566      0.61277793
  N      9.04268475      3.66407167     -0.36423089
  C      8.40596887      2.47297177     -0.16481174
  C      8.92762154      1.92300305      0.96423395
  C     10.62380206      2.59344151      2.64303859
  C     10.07236451      3.48719677      3.74873428
  C      8.82507682      4.59721468     -1.43308752
  H     10.59802078      4.69033549      0.63217898
  H      7.64320387      2.11254774     -0.82346423
  H      8.76644831      0.97808384      1.45569902
  H     10.52516086      1.53494641      2.91236124
  H     11.67150789      2.83365595      2.45095449
  H     10.59893378      3.28943927      4.67755004
  H      9.01495531      3.28495906      3.89977268
  H     10.19696821      4.53673983      3.49002860
  H      7.85587395      5.08403996     -1.31999228
  H      8.85881525      4.08305780     -2.39290408
  H      9.62365672      5.34866412     -1.37957112
  N      1.38435049      3.63042012      8.41614935
  C      2.26594296      2.98869456      7.65341066
  N      3.03863950      2.23865775      8.42890720
  C      2.64193772      2.41069040      9.72227067
  C      1.60203400      3.28928715      9.71448239
  C      0.39177508      4.57792017      7.97355426
  C      1.05417354      5.89143953      7.57455572
  C      4.09801557      1.38748531      7.96882505
  H      2.37026974      3.04547353      6.57489601
  H      3.13593758      1.91767732     10.53330688
  H      0.95797477      3.67452187     10.48887053
  H     -0.14152190      4.15343431      7.11978676
  H     -0.30037230      4.72886635      8.81314841
  H      0.29474162      6.60235224      7.26191782
  H      1.75220495      5.73467361      6.75477918
  H      1.59066687      6.31030200      8.42202995
  H      3.88953201      0.35276297      8.24343001
  H      5.04932741      1.68632119      8.42898717
  H      4.15969259      1.47306069      6.88589774
 Cl     11.45857022      6.31166474     -0.49445857
 Cl      3.17874300      2.78011157      4.58746102
 Cl     -1.12509099      4.59326316     10.93986231
 Cl      6.93313479      2.43480786      9.43513975
 Cl      9.69348084     -0.65849047      2.75794922

