#B3LYP/6-31+G(d) OPT FREQ

62, Energy =    -96.27348832 au

0 1
  N      9.11567023      8.15264302      3.77444010
  C      8.08259636      7.34166949      3.99003353
  N      8.27104458      6.21481203      3.30964707
  C      9.45876412      6.29927996      2.65195083
  C      9.98914333      7.51929805      2.94226274
  C      9.30760186      9.46782352      4.32988863
  C     10.34400243      9.43983421      5.44859265
  C      7.36648668      5.10302383      3.25573539
  H      7.16739070      7.58816064      4.50767644
  H      9.77723862      5.50906307      1.99804216
  H     10.87340710      8.00860794      2.59047718
  H      9.65282680     10.11632600      3.51207088
  H      8.34567398      9.81728680      4.70825926
  H     10.46169415     10.43904738      5.85735495
  H     11.30601485      9.11288017      5.06269985
  H     10.03806657      8.76806981      6.24853455
  H      7.56910827      4.40874720      4.07299078
  H      7.51848719      4.58735017      2.30321986
  H      6.34593466      5.47145613      3.33979458
  N      5.41860013      6.62815182      7.87231506
  C      5.07488437      6.10716097      9.05166112
  N      4.74584048      4.82074621      8.87357844
  C      4.99962959      4.49881603      7.56541759
  C      5.41622877      5.62611745      6.94200151
  C      5.87640594      7.97163809      7.62269806
  C      7.39143281      8.04913566      7.78248136
  C      4.47700924      3.91388790      9.94992149
  H      4.86063504      6.67590032      9.93169938
  H      4.86090633      3.50656648      7.18947032
  H      5.64522140      5.82595051      5.91466494
  H      5.57412961      8.23563719      6.60450870
  H      5.38789853      8.63903171      8.33609049
  H      7.72376047      9.08055911      7.70638546
  H      7.88051867      7.45728976      7.01241307
  H      7.67266038      7.64869154      8.75385751
  H      5.31281643      3.98208305     10.65328597
  H      4.39554707      2.90048726      9.56481535
  H      3.55374496      4.18798447     10.46300691
  N      6.78512002      8.79572638      1.35620573
  C      7.94243796      8.76314562      0.70059324
  N      8.05211076      7.59030865      0.08801957
  C      6.93423656      6.85716319      0.34609230
  C      6.13529637      7.61722329      1.14344662
  C      6.28848463      9.90057271      2.13655105
  C      5.29783525     10.73223721      1.32800666
  C      9.17134122      7.14070066     -0.68661836
  H      8.72268510      9.52157837      0.76610249
  H      6.84685268      5.84588302      0.00164469
  H      5.19650924      7.40374456      1.61101397
  H      5.79920228      9.48484912      3.02376306
  H      7.14369551     10.51231122      2.42749216
  H      4.93228934     11.55455530      1.93592805
  H      4.44928913     10.12371497      1.02379740
  H      5.77803955     11.13981742      0.44057216
  H      8.97987639      7.28511039     -1.75096042
  H      9.30578339      6.07072548     -0.49172268
  H     10.05555546      7.70297229     -0.39753971
 Cl    -29.16870084      9.28607233      9.95180565
 Cl      8.65477703      4.06320716      0.34973295
 Cl     10.36073951     10.61913804      1.43190071
 Cl      7.14999154      5.72282201     10.40551886
 Cl      4.94967756      7.70321499      4.34678705

