#B3LYP/6-31+G(d) OPT FREQ

62, Energy =    -96.24635281 au

0 1
  N      0.99761364      3.71872344      7.63391093
  C      0.88291554      2.77068300      8.55661865
  N     -0.40155431      2.50163235      8.74850391
  C     -1.12971373      3.32581242      7.94369939
  C     -0.25394275      4.08780774      7.23990703
  C      2.23058639      4.28430903      7.15008041
  C      3.20568556      3.18818566      6.73193303
  C     -0.89843239      1.56092740      9.70775003
  H      1.69247015      2.24060280      9.01122009
  H     -2.19940713      3.29330759      7.92372093
  H     -0.41510659      4.84633430      6.49501806
  H      1.97660714      4.92440232      6.30284440
  H      2.66612357      4.89608308      7.94725997
  H      3.97612107      3.59708283      6.08428742
  H      2.66502235      2.40525723      6.20559706
  H      3.68437637      2.74680795      7.60173152
  H     -1.98436944      1.61245934      9.74136741
  H     -0.48648677      1.81416402     10.68677677
  H     -0.58984508      0.55125091      9.43219773
  N     -0.26390634      6.80005477      9.24263672
  C     -0.93249851      7.02229343      8.09577451
  N     -2.18935120      6.55227969      8.23245724
  C     -2.30789954      6.04344082      9.49775843
  C     -1.11302789      6.20123092     10.12206988
  C      1.10808676      7.13544359      9.51008067
  C      1.21401753      8.41216202     10.33936288
  C     -3.18208991      6.56604335      7.19999283
  H     -0.52270454      7.37918321      7.17255361
  H     -3.22116709      5.61312100      9.85347391
  H     -0.78176870      5.88129308     11.08787334
  H      1.54239730      6.28785163     10.05379382
  H      1.61720261      7.26225271      8.55267238
  H      2.25915098      8.63901209     10.52855914
  H      0.71125585      8.28473499     11.29461568
  H      0.76277620      9.25185567      9.81344915
  H     -3.80382860      5.67485902      7.26746111
  H     -2.66838100      6.58023928      6.23599274
  H     -3.81907664      7.45062969      7.28009088
  N      1.54496676      1.77149853      3.51737009
  C      0.23697249      1.70263766      3.79499165
  N     -0.24337520      2.94012975      3.92658008
  C      0.79300000      3.81893378      3.79979312
  C      1.90880284      3.09296057      3.54684825
  C      2.41940851      0.63062511      3.44282998
  C      2.23981979     -0.13435441      2.13590074
  C     -1.59616132      3.29251943      4.24800238
  H     -0.35003214      0.80949636      3.78360382
  H      0.63626293      4.87430583      3.92324324
  H      2.92044105      3.40303781      3.38791421
  H      3.44780581      0.98522899      3.53647215
  H      2.18474418     -0.00802839      4.30120413
  H      2.92190522     -0.97923772      2.10921075
  H      2.44816234      0.50934731      1.28358040
  H      1.22354448     -0.50938554      2.04905328
  H     -1.63267390      4.36621073      4.43756790
  H     -1.90391200      2.75060963      5.14172373
  H     -2.26412330      3.04123091      3.42226366
 Cl     -0.70929090      6.55034290      4.90462624
 Cl      0.49374450      0.84283288      6.21773168
 Cl     70.69779638    -18.64462939    -75.03208546
 Cl      1.19013593      4.12552988     10.81658508
 Cl    -28.74582338      5.69528114     34.26932567

