#B3LYP/6-31+G(d) OPT FREQ

62, Energy =    -96.27713525 au

0 1
  N      6.52595172      7.55532063      8.44001798
  C      7.50158030      7.67059075      9.32685849
  N      7.76863876      6.48293219      9.85213211
  C      6.93806876      5.57472709      9.27189185
  C      6.14969772      6.24846084      8.39379414
  C      5.87984613      8.65962929      7.77665030
  C      6.86716043      9.72341411      7.31693302
  C      8.85034919      6.21137491     10.75157670
  H      7.99413953      8.58189981      9.59271363
  H      6.95475573      4.53511556      9.52507738
  H      5.36481116      5.87274528      7.76586829
  H      5.31598686      8.27846334      6.92528490
  H      5.18006226      9.08748895      8.49983904
  H      6.41125888     10.29228769      6.51213153
  H      7.77849803      9.25920423      6.95106777
  H      7.12332351     10.40321136      8.12532017
  H      9.78721904      6.40251182     10.22058980
  H      8.81025022      5.17169815     11.06820312
  H      8.78637504      6.86401617     11.62179869
  N      2.43271663      9.09487667      8.38975047
  C      2.63251080      8.33045217      9.46339322
  N      2.84062070      7.08057932      9.06860711
  C      2.77800869      7.04182636      7.70995698
  C      2.52443685      8.30627190      7.27892324
  C      2.18881584     10.51702652      8.37905252
  C      3.42881829     11.28816754      7.94319698
  C      3.16632371      5.97591480      9.92230165
  H      2.69168775      8.66828437     10.47826114
  H      2.93854933      6.12303315      7.17386948
  H      2.49196848      8.71544028      6.28705870
  H      1.37226995     10.71363558      7.67836469
  H      1.88028515     10.81526833      9.38498676
  H      3.19410425     12.34605382      7.86899307
  H      3.76661233     10.93312301      6.97119946
  H      4.22826526     11.15624276      8.66618842
  H      3.47923018      5.13740089      9.30406124
  H      2.30522842      5.68769172     10.52601228
  H      3.97942718      6.29149427     10.58121069
  N      7.56148215      5.64264465      5.59531189
  C      6.31056732      5.32496925      5.27298855
  N      5.71489708      6.39035940      4.75175495
  C      6.61142589      7.41354735      4.72196178
  C      7.77441248      6.94215020      5.25098699
  C      8.54191806      4.77266513      6.19094717
  C      9.40893581      4.12182867      5.11738059
  C      4.34657619      6.45822542      4.32735224
  H      5.80122749      4.40776555      5.51065289
  H      6.32495010      8.38978609      4.38352571
  H      8.70788028      7.42178098      5.46625200
  H      9.15897916      5.39100405      6.85723151
  H      8.01331420      4.01406569      6.77035201
  H     10.12341951      3.45045157      5.58467997
  H      9.96051428      4.88254901      4.56987183
  H      8.79931652      3.55311017      4.41571861
  H      4.26049491      6.18601459      3.27487754
  H      3.99412547      7.48471894      4.46078217
  H      3.76121878      5.76458509      4.92899122
 Cl      3.95689159      4.07149758      6.89495839
 Cl      5.11135133      8.39016484     11.07943793
 Cl      9.93019025      7.29067036      7.78990180
 Cl      4.11904753      9.74560573      4.83305856
 Cl     -7.80417160    -12.44610686    -14.65773716

