#B3LYP/6-31+G(d) OPT FREQ

62, Energy =    -96.25958536 au

0 1
  N      1.67885147      8.12603576      6.85986306
  C      1.36889757      9.06308982      5.97209131
  N      1.66714323      8.61460405      4.75785059
  C      2.17912210      7.35596981      4.87400021
  C      2.18337768      7.04576663      6.19876651
  C      1.42494923      8.22775032      8.27496991
  C      0.29263665      7.28612330      8.66814379
  C      1.49306577      9.31223124      3.51622200
  H      0.96401478     10.03050155      6.26363143
  H      2.44581750      6.79274662      3.99976638
  H      2.49299194      6.15668714      6.71459273
  H      2.33644976      7.96129770      8.81594420
  H      1.15551233      9.27060114      8.47579545
  H      0.10287075      7.36895143      9.73439021
  H      0.55888161      6.25848403      8.43120059
  H     -0.61505869      7.55312180      8.13220551
  H      0.61561703      9.95291751      3.57254401
  H      1.37468674      8.56862255      2.72282451
  H      2.36911181      9.92575011      3.29875317
  N      1.99047423      3.63030914     11.63769146
  C      2.83453831      2.83069405     10.99373905
  N      3.40855747      2.01429956     11.87065458
  C      2.92000632      2.29127383     13.10966244
  C      2.02585726      3.30569613     12.96341525
  C      1.14898262      4.62215019     11.01502174
  C     -0.29649706      4.14187282     10.95001503
  C      4.38977168      0.99787540     11.61049218
  H      3.00890711      2.89347962      9.92964155
  H      3.26155180      1.71293968     13.96117825
  H      1.43072449      3.81648496     13.69159858
  H      1.21942968      5.55184144     11.58530915
  H      1.53291300      4.77764963     10.00084058
  H     -0.91342573      4.91177983     10.49608061
  H     -0.68248035      3.91880065     11.94345342
  H     -0.35973167      3.24603902     10.33733854
  H      4.01827592      0.29409884     10.86688055
  H      4.58300213      0.47935633     12.55838168
  H      5.31138741      1.44736700     11.24186225
  N      2.90647718      2.67472536      2.17759663
  C      2.15861841      3.56368201      2.82342164
  N      1.90562672      3.10533471      4.04485854
  C      2.51144119      1.88850843      4.17673245
  C      3.14334481      1.61999041      3.00150678
  C      3.40435075      2.79736199      0.82804082
  C      4.28643977      4.03182548      0.69056274
  C      1.09919378      3.75839271      5.03598400
  H      1.83263778      4.52352662      2.43372205
  H      2.45797536      1.32818853      5.08686437
  H      3.71390751      0.77367574      2.64525833
  H      3.95397423      1.87283065      0.60968328
  H      2.55087677      2.87777120      0.14860906
  H      4.68144489      4.08327818     -0.32005435
  H      5.12061254      3.97968004      1.38670469
  H      3.71390609      4.93581136      0.88922377
  H      0.83583568      4.75170832      4.68089146
  H      1.64370554      3.84155467      5.98040664
  H      0.18911931      3.18338665      5.21566391
 Cl      4.58861273     -0.34422444      0.89899629
 Cl      1.48517521      6.49680524      1.71404924
 Cl      2.60025523      4.15715694      8.07200602
 Cl      4.40037905      0.05982905     14.79287711
 Cl      0.45534098     11.46929356      7.74853786

