#B3LYP/6-31+G(d) OPT FREQ

62, Energy =    -96.25855069 au

0 1
  N      4.53480261      9.84980957      4.94943195
  C      4.64672869      8.83704598      5.80502762
  N      3.60698752      8.85680890      6.63145267
  C      2.81176383      9.91144366      6.29479145
  C      3.39552863     10.53513064      5.23375717
  C      5.42279913     10.13055805      3.84833006
  C      5.31609304      9.02985334      2.79879842
  C      3.34936730      7.92494191      7.69054836
  H      5.42379552      8.08608751      5.79386287
  H      1.88259673     10.08564998      6.79630698
  H      3.14415556     11.41824503      4.66905264
  H      5.12567723     11.10636393      3.43946835
  H      6.44644786     10.18638039      4.22739803
  H      5.96556517      9.26365815      1.96011112
  H      4.29396144      8.96224743      2.43347514
  H      5.60898719      8.07016083      3.22194950
  H      2.28268191      7.66123986      7.66570095
  H      3.57505442      8.37924219      8.65646737
  H      3.96867069      7.04196379      7.55293369
  N      8.81873482      4.22397120      4.08209302
  C      9.12186056      5.46814079      3.72237118
  N      8.30783501      5.85174030      2.74336493
  C      7.50161500      4.79840497      2.42762766
  C      7.81532334      3.78135790      3.26666551
  C      9.46730801      3.47326140      5.12404128
  C      8.55057971      3.31943232      6.33359825
  C      8.42034975      7.10090113      2.05227335
  H      9.79419625      6.11435820      4.24469947
  H      6.76293463      4.85970391      1.65550894
  H      7.40434416      2.79668828      3.35226233
  H      9.75448177      2.49600810      4.72421077
  H     10.37680670      4.01509666      5.38982547
  H      9.11282954      2.96595340      7.19326498
  H      7.75164099      2.61320339      6.12484196
  H      8.10086057      4.27906920      6.57376650
  H      7.68058811      7.14605840      1.25631323
  H      9.42831561      7.16715073      1.63444786
  H      8.25962743      7.92652238      2.74658873
  N      3.47662795      3.70079003      5.93628336
  C      3.56147446      4.91927346      5.40829755
  N      2.33423003      5.37118447      5.17350073
  C      1.44654779      4.41523975      5.56958510
  C      2.16608563      3.36440868      6.05113718
  C      4.57976322      2.88725545      6.38152042
  C      5.15462348      3.45167613      7.67547951
  C      1.97807120      6.64210002      4.61373053
  H      4.48712884      5.44635851      5.22240159
  H      0.39062504      4.57361958      5.50720619
  H      1.88958224      2.38739757      6.41302407
  H      4.18771814      1.87134348      6.52615840
  H      5.34532500      2.89044138      5.60224870
  H      5.92681239      2.78929865      8.05530133
  H      4.37220607      3.53680356      8.42560111
  H      5.58866168      4.43332767      7.49645534
  H      1.35402260      7.19113191      5.33874859
  H      1.40061235      6.49885799      3.70019095
  H      2.88064665      7.20389516      4.38912338
 Cl     11.21413336      5.08324523      2.31746427
 Cl      2.67426161      0.18695842      6.57826113
 Cl      0.16126751      7.77254756      7.06839169
 Cl      4.02031090     13.05441284      3.23086286
 Cl      6.56735335      6.26049470      5.30294903

