#B3LYP/6-31+G(d) OPT FREQ

62, Energy =    -96.29618053 au

0 1
  N      5.05137053      7.93572885      8.14230656
  C      5.07992388      8.19408702      6.83894871
  N      4.34682262      9.27448929      6.59500672
  C      3.84588864      9.72299496      7.78058585
  C      4.29223712      8.88190733      8.75430296
  C      5.69973320      6.82582374      8.79181188
  C      7.07419618      7.22935113      9.31366878
  C      4.07330512      9.83878047      5.30601338
  H      5.52143983      7.54288883      6.09956602
  H      3.19908844     10.57454661      7.82577312
  H      4.07414340      8.82094689      9.80294754
  H      5.05183146      6.51966102      9.62172061
  H      5.79214052      6.02212094      8.05935877
  H      7.53770056      6.37920156      9.80498847
  H      6.98229482      8.03698750     10.03630451
  H      7.71699048      7.55360746      8.49659381
  H      4.40546138      9.14724265      4.53626865
  H      4.58517395     10.79532562      5.18969626
  H      2.99030994     10.00004140      5.21289593
  N      1.00256781      7.14414354      8.44361817
  C      1.37681222      5.99092986      8.97917240
  N      2.35990233      5.47600152      8.25667085
  C      2.62662648      6.32673463      7.22647491
  C      1.77586893      7.37970340      7.34658457
  C     -0.00244034      8.03370398      8.96292387
  C      0.60375321      8.96231627     10.01153316
  C      3.03542036      4.24305371      8.52906854
  H      0.94942843      5.53967387      9.85017002
  H      3.40121350      6.11606061      6.51349061
  H      1.62912829      8.25570700      6.74095453
  H     -0.40318068      8.61097205      8.12708191
  H     -0.79950384      7.42514355      9.39605643
  H     -0.18055323      9.46592632     10.56982150
  H      1.23016713      9.70842152      9.52984004
  H      1.22261709      8.38888082     10.69769796
  H      3.45608991      4.28533772      9.53517228
  H      3.83044255      4.10693227      7.79884621
  H      2.32551559      3.41663285      8.46748156
  N      1.93141569      5.00233684      4.45540962
  C      0.71908196      5.20799986      4.96156020
  N      0.38468341      6.47765999      4.77112935
  C      1.40076081      7.10125567      4.11542673
  C      2.37431028      6.17195039      3.91452001
  C      2.66949950      3.76602645      4.49106789
  C      2.56440018      3.02584424      3.16194790
  C     -0.81616672      7.09577553      5.25271832
  H      0.14725623      4.52763024      5.57881830
  H      1.36529427      8.15318772      3.91114029
  H      3.35435801      6.25460016      3.49256636
  H      3.71419037      4.01655558      4.70729598
  H      2.26461286      3.15705124      5.30090597
  H      3.13065960      2.10037571      3.21403082
  H      2.97080703      3.63338945      2.35677211
  H      1.52631522      2.78883849      2.93480027
  H     -1.60583060      7.03998534      4.50166533
  H     -0.60085545      8.14352553      5.46855124
  H     -1.13465351      6.56714620      6.15169791
 Cl     -0.64398891      4.46958184      7.60127211
 Cl      5.41194587      5.49736640      5.24643216
 Cl     48.02961028    -11.29008594    -37.86199643
 Cl      3.25318484      6.77919806     11.02192402
 Cl      0.80761898     10.08910105      5.50744157

