#B3LYP/6-31+G(d) OPT FREQ

62, Energy =    -96.25962796 au

0 1
  N      7.01547888      2.55118396      9.50640383
  C      7.28562857      3.45371807      8.56478483
  N      8.36458476      3.07082601      7.89550829
  C      8.79313858      1.88802580      8.41937581
  C      7.94254781      1.55914415      9.43105578
  C      5.91444597      2.56623770     10.43798870
  C      4.62247810      2.13943900      9.75060972
  C      8.97559058      3.81602050      6.83524124
  H      6.74803153      4.36453499      8.34724567
  H      9.64759569      1.37572796      8.02832629
  H      7.92559207      0.75099904     10.14561296
  H      6.16999719      1.85958926     11.23947179
  H      5.81081958      3.57574987     10.84252347
  H      3.80816557      2.15528858     10.46889650
  H      4.72389277      1.12733802      9.36716501
  H      4.37836509      2.80975254      8.92831051
  H      8.37574481      4.70737191      6.66513033
  H      9.03169621      3.22340271      5.91235028
  H      9.98902899      4.10211261      7.11780826
  N      5.85568427      5.41361413      1.47508230
  C      6.51603861      6.27294121      2.24741452
  N      7.26008392      5.59491108      3.10978498
  C      7.07852999      4.26396582      2.89338989
  C      6.19843351      4.15019089      1.86197674
  C      4.98170918      5.78241991      0.38982815
  C      5.62138923      5.45667453     -0.95573561
  C      8.09217234      6.14529642      4.13731468
  H      6.40701640      7.34499526      2.14864303
  H      7.65348014      3.51513782      3.42309528
  H      5.80008040      3.27624682      1.38961540
  H      4.03298193      5.25067746      0.50159543
  H      4.81131512      6.86263762      0.47178355
  H      4.94048521      5.72712816     -1.75783032
  H      5.85660561      4.39640509     -1.03522784
  H      6.53795930      6.02859875     -1.07467892
  H      8.94772501      5.48833486      4.28356650
  H      7.52944647      6.20602750      5.07853027
  H      8.41590145      7.14429755      3.85441175
  N      3.76030103      7.71821770      4.96007668
  C      3.61584442      6.83464794      5.94158936
  N      3.64915101      5.60985112      5.43003873
  C      3.75808683      5.71951399      4.07464720
  C      3.83056674      7.04152650      3.77603965
  C      3.86941095      9.14481170      5.10306380
  C      5.31312174      9.58238293      4.87454155
  C      3.51615028      4.41587016      6.20663469
  H      3.59955597      7.05848483      6.98716735
  H      3.77181200      4.85444222      3.44360610
  H      3.95053431      7.56138756      2.84457819
  H      3.21131557      9.61856553      4.37005060
  H      3.52833589      9.40397072      6.10728141
  H      5.42941908     10.63535630      5.11811104
  H      5.58127514      9.43325728      3.83126683
  H      5.98107569      8.99680439      5.50204046
  H      3.53132700      3.54630889      5.55337551
  H      2.57229216      4.46305734      6.75398938
  H      4.35084107      4.36516482      6.90834113
 Cl      6.36707878      6.18845562      7.02657365
 Cl      1.04080446      6.86767668      6.34528249
 Cl      9.46239977      2.36130338      3.90053770
 Cl      7.24762510      0.09667522     12.24505437
 Cl      5.24635220      8.99107538      1.21093048

