#B3LYP/6-31+G(d) OPT FREQ

62, Energy =    -96.27265795 au

0 1
  N     -0.30927268      0.14622957      4.45842740
  C      0.43802875     -0.19502686      3.41490507
  N      0.25591483      0.69695694      2.44829165
  C     -0.62951034      1.63479959      2.89306747
  C     -0.98679312      1.28985950      4.15966587
  C     -0.35560642     -0.58579989      5.70074904
  C      0.03704605      0.30948457      6.86853270
  C      0.87374815      0.68669549      1.15388602
  H      1.05878550     -1.09120374      3.39870304
  H     -0.89782233      2.47959801      2.29391197
  H     -1.64391171      1.77058486      4.86759767
  H     -1.37489107     -0.95212368      5.85174997
  H      0.32275238     -1.43752664      5.59026192
  H      0.05200870     -0.27449394      7.78465129
  H     -0.68585599      1.11612698      6.97913325
  H      1.02798204      0.72913297      6.70635690
  H      1.16206244      1.70982488      0.89186432
  H      0.17299459      0.31558040      0.40350154
  H      1.74957218      0.04318692      1.17643758
  N      3.78973737      7.15320341      1.79416240
  C      4.46303515      7.97933879      2.59211913
  N      4.10741882      7.72973913      3.84802056
  C      3.18059480      6.73062414      3.85334069
  C      2.98434223      6.36353667      2.55919802
  C      3.89684347      7.07951237      0.35656049
  C      5.35103499      6.97321978     -0.08269179
  C      4.60309222      8.37819137      5.02833610
  H      5.19256827      8.72236585      2.25968840
  H      2.78549072      6.35452663      4.77849299
  H      2.35628830      5.60710186      2.12235917
  H      3.32030984      6.20720953      0.03847167
  H      3.44939768      7.97935109     -0.07725871
  H      5.39963677      6.88321240     -1.16446536
  H      5.81771370      6.09728643      0.36198205
  H      5.90230784      7.86231451      0.21991476
  H      5.65262797      8.63173636      4.89494334
  H      4.47148131      7.69605741      5.87164156
  H      4.04104464      9.29338791      5.22243139
  N      2.35007163      3.49455239      5.02495687
  C      2.10563558      3.49319864      6.33313585
  N      0.84035905      3.82867296      6.54349892
  C      0.26340314      4.08325995      5.33564802
  C      1.20710603      3.87583768      4.38091297
  C      3.62357649      3.21998078      4.40710055
  C      3.48567434      2.23297705      3.25675548
  C      0.18214091      3.96458952      7.80894873
  H      2.81107167      3.22787172      7.09321853
  H     -0.77272051      4.34052928      5.26162078
  H      1.15281910      3.96425176      3.31217050
  H      4.03982520      4.16448177      4.04428687
  H      4.28693098      2.83152324      5.18340468
  H      4.46818132      2.01567086      2.84721598
  H      2.87204484      2.65776501      2.46623537
  H      3.04024611      1.30146856      3.59944758
  H      0.21219061      5.00699112      8.12844468
  H      0.68391543      3.35158665      8.55363994
  H     -0.85667897      3.64006555      7.68883399
 Cl     -2.64614758      2.67749285      6.67735363
 Cl      3.38344073      5.82094874      7.01662426
 Cl      6.58471424      9.97919991      1.37390418
 Cl      1.34168087      3.97343863      0.92200851
 Cl      1.80382486     -2.91891882      4.10133536

