#B3LYP/6-31+G(d) OPT FREQ

62, Energy =    -96.25038334 au

0 1
  N     12.42094393      7.49657823      3.69643675
  C     12.60679236      6.30833245      4.26409145
  N     12.35352302      6.40452059      5.56600004
  C     12.06126048      7.70657117      5.84946270
  C     12.09876491      8.39008562      4.67968548
  C     12.48762780      7.76252147      2.28521757
  C     11.09188808      7.68985328      1.67102542
  C     12.48531232      5.31505931      6.48414222
  H     12.78217184      5.39233024      3.74136626
  H     11.83876587      8.04311150      6.84107716
  H     11.93736999      9.42849781      4.47591161
  H     12.93581990      8.74928091      2.13550303
  H     13.14419414      7.01084582      1.84392538
  H     11.15236084      7.66210978      0.58573163
  H     10.49570458      8.54809693      1.97184586
  H     10.59331606      6.78901655      2.02652635
  H     12.23301897      5.64886443      7.48794047
  H     13.51802485      4.95916849      6.45286532
  H     11.81450844      4.50970208      6.18004582
  N      7.89454112      7.39445188      6.04652399
  C      7.15224304      7.87266410      7.04299181
  N      7.59519584      7.36339076      8.19400795
  C      8.69208776      6.59255068      7.91811164
  C      8.87730976      6.61060661      6.57417318
  C      7.77973647      7.72360703      4.64743940
  C      8.39138920      9.09378885      4.38241460
  C      7.12647090      7.77743337      9.48348605
  H      6.27009090      8.46626783      6.93319467
  H      9.24258398      6.09786091      8.69166155
  H      9.56684195      6.10160598      5.92088436
  H      8.31203551      6.94586959      4.09106158
  H      6.72169049      7.71968334      4.37428744
  H      8.16728523      9.41529260      3.36920089
  H      9.46630242      9.04213783      4.51210834
  H      7.99768831      9.81900816      5.08809081
  H      7.19268349      8.87075395      9.51120319
  H      7.75151676      7.34269307     10.25975182
  H      6.08882303      7.47528388      9.63303223
  N     -1.05957750     -0.61455312      6.27181743
  C     -1.50704233     -1.87474230      6.27155268
  N     -2.41373383     -2.00865739      7.23552467
  C     -2.61586126     -0.79262521      7.81804400
  C     -1.77322418      0.08200124      7.21677259
  C     -0.12263922     -0.04619075      5.33728228
  C     -0.85311813      0.67063335      4.20642274
  C     -3.15866243     -3.18934506      7.55918494
  H     -1.07704230     -2.67550472      5.70764879
  H     -3.29067250     -0.70365808      8.65317109
  H     -1.61641623      1.12770779      7.38083549
  H      0.53526423      0.64152882      5.88003237
  H      0.47635972     -0.86180268      4.92646911
  H     -0.15033935      0.97551635      3.43597976
  H     -1.37479918      1.54751128      4.58096667
  H     -1.58348581     -0.01637248      3.78259972
  H     -3.92569095     -3.35162046      6.80020189
  H     -3.61960096     -3.03075404      8.54039255
  H     -2.49728193     -4.05495111      7.58675852
 Cl      7.79206941     10.35175216      7.65884134
 Cl     -2.92803466     -2.02045327      4.12421508
 Cl     -4.02991815     -1.92272556     10.51569591
 Cl      9.95444306      5.18099932      3.87300025
 Cl     15.16086346      6.28627910      4.44358656

