#B3LYP/6-31+G(d) OPT FREQ

62, Energy =    -96.27270043 au

0 1
  N     10.48138090      4.15472050      4.28831340
  C      9.64137409      4.18712307      3.26118664
  N      9.39855725      2.94355734      2.86657095
  C     10.09868887      2.09383498      3.66766270
  C     10.77665319      2.85322883      4.56968021
  C     10.94013887      5.30077309      5.03085468
  C     10.36777529      5.26662347      6.44290951
  C      8.49929588      2.53508198      1.82587007
  H      9.27360104      5.08629031      2.79283732
  H     10.04207242      1.03292413      3.51331028
  H     11.41400471      2.58178776      5.39493417
  H     12.03246543      5.27698996      5.07453591
  H     10.61516888      6.19210721      4.49014652
  H     10.57168120      6.20360609      6.95369637
  H     10.82927094      4.45419028      6.99907879
  H      9.29297264      5.10922548      6.39639787
  H      7.49150534      2.87382119      2.06689875
  H      8.51181245      1.44344157      1.77441522
  H      8.80129707      2.96367264      0.87033109
  N      8.94858376      1.57875228      7.34047266
  C      7.84992793      1.77059810      6.61888464
  N      7.81699812      0.88561652      5.63040313
  C      8.91988742      0.09603641      5.72691792
  C      9.63395060      0.53368180      6.80074041
  C      9.35237377      2.31630685      8.50869449
  C      9.04038466      1.53447319      9.77947840
  C      6.81830859      0.80475304      4.60435841
  H      7.14032670      2.56338809      6.75328228
  H      9.11304587     -0.66556324      4.99547840
  H     10.59010852      0.24196784      7.18255473
  H     10.43729302      2.48392431      8.41870240
  H      8.82937090      3.27349953      8.50676157
  H      9.36723330      2.10436626     10.64425504
  H      9.56915899      0.58535889      9.77496144
  H      7.97209896      1.34125546      9.86994674
  H      7.25644906      0.29268670      3.74190710
  H      6.51262111      1.81558123      4.33861320
  H      5.95007946      0.24622628      4.95739162
  N      6.57245152      7.58727462      3.71402409
  C      6.72334202      6.57155390      2.86783095
  N      5.99298599      6.80540898      1.77507911
  C      5.46397261      8.06091588      1.88215898
  C      5.82118325      8.54780728      3.09679041
  C      7.21610340      7.68117635      5.00023724
  C      8.49609261      8.50280057      4.90023698
  C      6.02362251      5.97365537      0.60847865
  H      7.14350390      5.62438263      3.15730710
  H      4.87987048      8.50212039      1.10073692
  H      5.59670636      9.48525551      3.56227673
  H      6.51458713      8.12983306      5.70969043
  H      7.43811336      6.65811388      5.31370916
  H      9.08074916      8.39951459      5.80925830
  H      8.27209936      9.55581070      4.74000065
  H      9.07941409      8.14381727      4.05599108
  H      7.04868392      5.96433939      0.22671214
  H      5.34845281      6.36930651     -0.14699644
  H      5.73514202      4.95511557      0.86830072
 Cl      8.95607604      7.06052506      1.71795752
 Cl     12.40527106      2.43039623      7.48520898
 Cl      6.99359744      4.23406492      4.95064034
 Cl      8.78481935     -0.80853954      2.48585755
 Cl    -11.32304714     24.05324292     14.13963830

