#B3LYP/6-31+G(d) OPT FREQ

62, Energy =    -96.26318668 au

0 1
  N      4.86665857      5.92845496      2.68964036
  C      4.63905744      4.84320953      3.42552000
  N      5.76587889      4.14324715      3.51756273
  C      6.73856992      4.79585844      2.82303887
  C      6.17211202      5.92085395      2.30232582
  C      3.90363109      6.94336509      2.33035917
  C      3.18340172      7.48230659      3.55894139
  C      5.94944341      2.91110386      4.23135571
  H      3.70003204      4.57206756      3.87876193
  H      7.72452143      4.37315812      2.74990337
  H      6.56170421      6.72880387      1.70703241
  H      4.45791681      7.74013171      1.81298637
  H      3.17662310      6.50670316      1.63881063
  H      2.48771125      8.25961630      3.25526688
  H      3.90289883      7.91692093      4.25046992
  H      2.62644994      6.69178182      4.05847975
  H      6.91206103      2.47769780      3.92188416
  H      5.13263505      2.22590708      4.00952646
  H      5.97167487      3.09639362      5.30615097
  N     -0.66499003      3.60713976      7.77365693
  C      0.57684397      3.15004796      7.65545873
  N      1.01215736      2.77048327      8.85190012
  C      0.01661078      2.98726249      9.75664614
  C     -1.04141788      3.50735832      9.07595157
  C     -1.49127015      4.09717403      6.69963677
  C     -2.31424760      2.96351118      6.09704998
  C      2.30819007      2.25029803      9.17610881
  H      1.14578379      3.18859729      6.73685166
  H      0.16178331      2.79762550     10.79944342
  H     -1.99043260      3.88777332      9.40263093
  H     -2.14992832      4.86207510      7.12281651
  H     -0.83442900      4.53025203      5.94335167
  H     -2.93944863      3.35629499      5.30075061
  H     -2.95570333      2.51612070      6.85374369
  H     -1.66264173      2.19695265      5.68135187
  H      2.22826006      1.21011316      9.49505675
  H      2.71113354      2.84382926     10.00808677
  H      2.95719194      2.31649240      8.30740930
  N      2.29344712      6.42126737      7.94846967
  C      1.97140373      6.23850354      9.22892223
  N      0.66213515      6.39584289      9.36952710
  C      0.12513592      6.68428378      8.15393100
  C      1.15125951      6.69676722      7.25873720
  C      3.62853461      6.35868741      7.40051137
  C      4.13928662      4.92547052      7.34086141
  C     -0.06292221      6.31134432     10.60410942
  H      2.61854631      5.90796742     10.02750321
  H     -0.93568512      6.81652835      8.04357240
  H      1.15285643      6.84086119      6.19855791
  H      3.59205789      6.77585186      6.39336903
  H      4.28607492      6.97211457      8.02433728
  H      5.15656253      4.92027291      6.95961376
  H      3.50581111      4.35491541      6.66554773
  H      4.13002063      4.47814039      8.33110130
  H      0.40445803      5.55361488     11.23240303
  H     -1.10310636      6.06851503     10.38078866
  H     -0.02815784      7.27139085     11.12176876
 Cl      6.03896875      8.93335610      0.81332444
 Cl      8.92968460      2.20179699      3.14452942
 Cl      1.68000765      4.34491416      4.95862293
 Cl      2.57827641      4.34423222     11.66251354
 Cl     -3.05451965      6.03642531      8.98814188

