#B3LYP/6-31+G(d) OPT FREQ

62, Energy =    -96.25224518 au

0 1
  N     11.77424489      2.91917013      7.89649186
  C     10.91634257      3.52440556      7.08311475
  N     10.84845397      2.84107761      5.94623052
  C     11.69093151      1.76914154      6.04084767
  C     12.27008220      1.81780813      7.27065121
  C     12.10997469      3.30760643      9.24539114
  C     10.91668525      3.10266584     10.17057828
  C     10.02463623      3.20396360      4.82784963
  H     10.32596564      4.41779778      7.25469186
  H     11.81104910      1.06540589      5.24341227
  H     13.01198026      1.20608581      7.77060660
  H     12.95392088      2.67483088      9.55245215
  H     12.40958265      4.35836121      9.24485516
  H     11.18367380      3.40341801     11.17922100
  H     10.63626878      2.05252996     10.18829234
  H     10.06451630      3.69311711      9.83991506
  H      9.36074308      2.38106078      4.56435893
  H     10.64645277      3.45145431      3.96693631
  H      9.43223071      4.07745117      5.12373689
  N      5.60313469      5.77491947      4.56180619
  C      6.36614018      6.86263287      4.57339517
  N      7.48402150      6.62636699      3.89648935
  C      7.41335156      5.36502722      3.39463345
  C      6.23832405      4.82840125      3.81082555
  C      4.30137556      5.63877511      5.17768499
  C      3.27861945      5.05942045      4.21318831
  C      8.53758983      7.57594961      3.70744807
  H      6.16346608      7.75372624      5.12964856
  H      8.19391110      4.94816430      2.79247611
  H      5.81665135      3.86174745      3.63419171
  H      4.39364388      5.00381817      6.06489453
  H      3.98557737      6.63344539      5.49346554
  H      2.28461814      5.16259193      4.64767592
  H      3.46249765      4.00556100      4.01975455
  H      3.31267610      5.60342153      3.27325632
  H      8.09445586      8.52855319      3.41415592
  H      9.20779324      7.22403077      2.92614011
  H      9.09240763      7.68772577      4.64124307
  N      0.00731947      6.23530466      1.43764793
  C      0.46364700      6.65588152      2.61384466
  N      1.34399672      7.62683550      2.40959447
  C      1.44632722      7.83559375      1.06471643
  C      0.60399850      6.96103775      0.44966763
  C     -0.97482341      5.19846760      1.24239989
  C     -2.25528598      5.77061504      0.64685248
  C      2.04357845      8.32896627      3.44748282
  H      0.20569785      6.26784061      3.59914316
  H      2.11673659      8.56286346      0.65627866
  H      0.34448641      6.81391042     -0.59118560
  H     -0.56323709      4.45790378      0.55180908
  H     -1.15492724      4.73515746      2.21575907
  H     -3.00920804      4.99086469      0.58249010
  H     -2.04966649      6.14033586     -0.35804461
  H     -2.63660263      6.58027337      1.26513088
  H      1.71256450      9.36799775      3.48491277
  H      3.12176378      8.31665758      3.25515001
  H      1.82177151      7.84302341      4.39553033
 Cl     14.44312164      0.92120072      9.40212623
 Cl      0.19707588      5.76097466      5.62885629
 Cl     -0.85360519      6.39313791     -2.41311346
 Cl      8.72942726      5.71953498      6.52556084
 Cl      5.34625050      8.39501463      2.69919308

