#B3LYP/6-31+G(d) OPT FREQ

62, Energy =    -96.26965446 au

0 1
  N      3.01669087      3.55217985      2.43416495
  C      3.23802635      4.43630271      1.46739321
  N      4.47941263      4.89996080      1.57775172
  C      5.09447910      4.23433428      2.59791761
  C      4.17646376      3.39461303      3.13717384
  C      1.79754178      2.82021832      2.64279092
  C      1.89121596      1.44372398      1.99262770
  C      5.11783681      5.81869410      0.68236113
  H      2.49152256      4.82405387      0.80756272
  H      6.11196640      4.43830381      2.86388999
  H      4.25214553      2.71503255      3.96078365
  H      1.61909706      2.74947141      3.71970148
  H      0.98703251      3.39782396      2.19579096
  H      0.92039729      0.95595551      1.99137895
  H      2.60408786      0.81518086      2.52191195
  H      2.23687872      1.56802898      0.96768059
  H      5.41089646      5.28577302     -0.22509691
  H      5.99579508      6.23781467      1.17527815
  H      4.42132526      6.61238277      0.41427315
  N      4.55119750      7.09548571      5.50966784
  C      4.46593396      7.29357192      4.19639330
  N      4.30668979      8.59080738      3.96394427
  C      4.24197751      9.24035659      5.16369520
  C      4.39835326      8.30312262      6.13217190
  C      4.67310383      5.79682696      6.11637702
  C      6.12701593      5.33675705      6.14922761
  C      4.15713696      9.20352944      2.67584242
  H      4.64196762      6.54883451      3.45235748
  H      4.13778067     10.30529404      5.21311710
  H      4.40390597      8.39591874      7.19875829
  H      4.25411850      5.84659262      7.12472465
  H      4.06253134      5.11915751      5.51303983
  H      6.18136941      4.27292296      6.36203578
  H      6.68683551      5.87571093      6.91095066
  H      6.59220906      5.52748411      5.18539562
  H      4.79964815      8.68828751      1.96390523
  H      4.45025728     10.25203527      2.75437603
  H      3.11956858      9.12422492      2.34630069
  N      8.27635946     10.34300469      4.76392129
  C      7.51747037      9.99878173      3.72387823
  N      8.18053599     10.25570948      2.60121307
  C      9.36012972     10.85905613      2.93037349
  C      9.42154561     10.91285237      4.28495063
  C      7.87201978     10.17031261      6.13305228
  C      8.02816911      8.71182118      6.55199620
  C      7.67650002      9.96342024      1.29265693
  H      6.62261799      9.41853310      3.77760412
  H     10.05583957     11.19516708      2.18923360
  H     10.17649055     11.30785140      4.93315330
  H      8.47789264     10.82816886      6.76093014
  H      6.82500669     10.47983248      6.19878134
  H      7.54485755      8.54138434      7.50994746
  H      9.08009766      8.44720375      6.63664527
  H      7.57647763      8.06643319      5.80274598
  H      7.40658484      8.90563256      1.26045394
  H      8.43877398     10.17574264      0.54656841
  H      6.78902462     10.56957049      1.10307233
 Cl     28.11483579     -2.03949657     28.42832168
 Cl      5.88066247     11.94812938      3.82363067
 Cl      2.13673149      6.16150609      3.88645793
 Cl      3.63790832      2.92292908     -0.59795038
 Cl      7.28974935      7.08370567      3.18129931

