#B3LYP/6-31+G(d) OPT FREQ

62, Energy =    -96.23815665 au

0 1
  N      5.43416028      9.24345487      4.06899506
  C      5.59210305      8.63022654      5.23706251
  N      4.61739097      8.99517732      6.06049708
  C      3.82969317      9.89941309      5.41148739
  C      4.34122829     10.05412330      4.16325198
  C      6.30406798      9.06434545      2.93368748
  C      5.94789897      7.78796115      2.18059004
  C      4.46919408      8.50032451      7.39665783
  H      6.32575800      7.88694024      5.45774172
  H      2.98219593     10.35787981      5.87809148
  H      4.01979903     10.67450280      3.35221056
  H      6.21944713      9.94302266      2.29084473
  H      7.32261823      9.01326260      3.31908267
  H      6.79280484      7.43967989      1.59249993
  H      5.09815731      7.95686505      1.52308555
  H      5.68254145      7.01208473      2.89478996
  H      4.34411095      7.41604242      7.35549370
  H      3.59975272      8.95613390      7.86499655
  H      5.36801078      8.73859215      7.96807185
  N      3.78722752      5.23303192      1.62354486
  C      4.32269296      5.50981980      0.40891432
  N      5.43831238      4.76298160      0.24665404
  C      5.59298414      4.00344686      1.37147407
  C      4.57036683      4.28675921      2.21633355
  C      2.62718348      5.83989279      2.21477804
  C      1.37979218      4.98613184      1.99914319
  C      6.39419838      4.86813183     -0.81483733
  H      3.96446979      6.24667044     -0.27652380
  H      6.42357327      3.33959613      1.48249129
  H      4.36150850      3.93629354      3.20559471
  H      2.83660213      5.95761207      3.28355241
  H      2.48898313      6.82846488      1.77003291
  H      0.52050991      5.47004002      2.45371290
  H      1.50797412      4.00868578      2.45700295
  H      1.18396345      4.85119884      0.93661283
  H      6.61842889      3.88118877     -1.22043185
  H      7.32060718      5.30633953     -0.41821674
  H      6.00191609      5.50614505     -1.60266930
  N      8.21523889      5.78895547      4.98849389
  C      8.75622859      6.65461116      4.13620604
  N      9.28385946      7.66292197      4.82251196
  C      9.06332561      7.44953491      6.14691264
  C      8.39072833      6.26995071      6.25036407
  C      7.54852068      4.55979180      4.63187082
  C      8.37393326      3.76214042      3.63316005
  C      9.91766820      8.82675151      4.27502595
  H      8.76624490      6.54567433      3.05347159
  H      9.35372795      8.15892620      6.89276976
  H      8.01993514      5.75726768      7.11348565
  H      7.39411670      3.99217550      5.55252079
  H      6.56400316      4.80792559      4.22087867
  H      7.88131161      2.81558928      3.42977567
  H      9.36350300      3.55473037      4.03685656
  H      8.48772560      4.31193236      2.70165610
  H     10.95529131      8.88217247      4.60447634
  H      9.37889618      9.70515463      4.64669736
  H      9.88107453      8.77980956      3.18932258
 Cl      4.51193846      5.97562710      4.98605169
 Cl     32.39665553    -24.14459317     13.61777873
 Cl      7.55199113     10.10972370      6.14775911
 Cl    -35.35771877     15.23887843      2.92365520
 Cl      8.85101122      6.17797287      0.97974621

