#B3LYP/6-31+G(d) OPT FREQ

62, Energy =    -96.26044262 au

0 1
  N      6.02459069      8.43689957      8.73476623
  C      5.15922754      8.12562473      9.69030535
  N      5.69343305      8.42187649     10.87285389
  C      6.93375351      8.94153797     10.66958974
  C      7.14121577      8.95190672      9.32375134
  C      5.76939329      8.29549947      7.32222573
  C      5.54422474      9.64521098      6.65423582
  C      5.09569731      8.23455832     12.16483556
  H      4.19199328      7.68251915      9.48530967
  H      7.52691162      9.26554260     11.51066284
  H      7.98685964      9.27222160      8.75211428
  H      6.60699821      7.79443246      6.83247279
  H      4.87520852      7.67782250      7.21932325
  H      5.54564693      9.47802995      5.58097084
  H      6.34630777     10.34087761      6.89642329
  H      4.59256022     10.07714479      6.95558869
  H      4.11784971      8.71305600     12.19949614
  H      5.76454168      8.68530388     12.90921196
  H      4.97637238      7.17151164     12.37484184
  N      1.79245007      3.79384847      9.62917322
  C      1.47812711      3.75891927      8.33623633
  N      0.21690421      3.36055418      8.19739568
  C     -0.27098060      3.08459699      9.43961572
  C      0.71476314      3.35318143     10.33627527
  C      3.12479865      4.09283922     10.09470466
  C      3.21502348      4.23942973     11.60265047
  C     -0.45764017      3.11953029      6.95436781
  H      2.10265267      4.12534892      7.54837574
  H     -1.26755430      2.72348236      9.59285212
  H      0.71424689      3.26391315     11.40205239
  H      3.77336832      3.28401374      9.74110270
  H      3.42420905      5.02186948      9.59725196
  H      4.23307673      4.51205218     11.86859107
  H      2.97264390      3.30625143     12.10789631
  H      2.54590279      5.02243594     11.95365593
  H     -0.70740190      4.05000510      6.42986518
  H     -1.37709342      2.57034354      7.14707638
  H      0.19261244      2.52359493      6.31429953
  N      4.06649032      4.90083503      5.32030750
  C      3.68348884      6.15045806      5.09226678
  N      2.37048611      6.16889883      4.89542796
  C      1.89883879      4.89839528      5.00917102
  C      2.96543300      4.09716774      5.28102583
  C      5.40558267      4.49285625      5.66138837
  C      5.47923229      4.18729220      7.15353730
  C      1.53365879      7.32122980      4.72309148
  H      4.37204836      6.97546159      5.01386952
  H      0.84933883      4.69722881      4.88452414
  H      3.01580276      3.04756635      5.49618106
  H      5.65899811      3.60320382      5.07810046
  H      6.07231123      5.31469874      5.38235872
  H      6.50519865      3.97940218      7.44479587
  H      4.85896136      3.32507300      7.39209584
  H      5.11484086      5.04295991      7.71683406
  H      1.55713217      7.91738766      5.63679410
  H      0.51217901      6.97467886      4.55121832
  H      1.88211822      7.92809207      3.88779446
 Cl     -1.38044526      5.37619193      4.63480210
 Cl      2.77422108      6.71803759      8.12151437
 Cl      7.58922119      9.68750365     13.77500560
 Cl      6.58106857      7.40578834      4.25707913
 Cl      2.78031659      1.55842567      7.73981580

