#B3LYP/6-31+G(d) OPT FREQ

62, Energy =    -96.27533139 au

0 1
  N      8.66774798      5.15267400      0.53658349
  C      8.07872242      5.00826962     -0.64512893
  N      6.87057376      4.48818353     -0.45777883
  C      6.68372328      4.29702981      0.87870100
  C      7.81347479      4.71885732      1.50596975
  C      9.96894953      5.73874227      0.74318301
  C      9.83832809      7.08209487      1.45260659
  C      5.87862407      4.20361364     -1.45389901
  H      8.58262614      5.23468032     -1.58147635
  H      5.74128138      3.94883264      1.25396339
  H      8.04062703      4.79334294      2.55173220
  H     10.56674914      5.05381540      1.35121786
  H     10.42907220      5.84819698     -0.24453396
  H     10.82527726      7.49635289      1.63811304
  H      9.32351763      6.96497650      2.40456125
  H      9.27976538      7.78103526      0.83452930
  H      4.89598146      4.39288546     -1.00848764
  H      5.93428844      3.15768677     -1.76107578
  H      6.03578362      4.83989009     -2.32162514
  N      3.81847028      9.74829978      6.48969539
  C      4.95942901     10.28210225      6.07277843
  N      5.80505116      9.30125068      5.77146412
  C      5.18027555      8.11033763      6.00238059
  C      3.92638936      8.38946634      6.45260038
  C      2.66515840     10.51613761      6.89238738
  C      1.48001729     10.23830071      5.97706393
  C      7.15375318      9.45620419      5.30327077
  H      5.13702904     11.35800342      6.04457140
  H      5.67881509      7.18100230      5.81024194
  H      3.10026910      7.74326470      6.70499347
  H      2.40604173     10.24009235      7.91842245
  H      2.96201123     11.56924625      6.86066155
  H      0.63991094     10.85942069      6.27469628
  H      1.18509414      9.19304202      6.05097353
  H      1.73519093     10.46766056      4.94515412
  H      7.49120020      8.50376528      4.88646268
  H      7.80967945      9.73778011      6.12810693
  H      7.19734160     10.23580704      4.54523301
  N      4.71278653      7.45319509      2.71729012
  C      4.58024846      6.22622833      3.20655237
  N      3.42282021      6.13258660      3.84344224
  C      2.77132511      7.32025128      3.72991999
  C      3.58163761      8.15224215      3.02247197
  C      5.83870019      7.91301399      1.94438436
  C      5.58318940      7.69614607      0.45603990
  C      2.89752677      4.97186183      4.49896786
  H      5.33414595      5.46798264      3.14405383
  H      1.82098587      7.47320017      4.20297423
  H      3.44347566      9.16999254      2.72037703
  H      6.00064832      8.97141100      2.16561573
  H      6.70670488      7.34315892      2.28507069
  H      6.51109908      7.75844197     -0.10523087
  H      4.88897447      8.44047803      0.07137050
  H      5.13728349      6.71411130      0.31257573
  H      2.17967177      5.30265408      5.25446568
  H      3.70810302      4.41594631      4.96595259
  H      2.40183394      4.33385635      3.76525960
 Cl      3.53344637      4.86197592      0.86997211
 Cl      1.00685715      6.79957241      6.59422616
 Cl     10.38094561      5.52057352     -2.69842659
 Cl      7.63082307      6.27330212      4.37401334
 Cl      4.75254479     13.37754531      6.46996614

