#B3LYP/6-31+G(d) OPT FREQ

62, Energy =    -96.27087084 au

0 1
  N      3.14640645      6.40442791      2.67407658
  C      3.28254064      6.35420336      1.35413829
  N      3.51341668      7.58101443      0.90172427
  C      3.52795980      8.43827281      1.96151908
  C      3.30149244      7.69695811      3.07883356
  C      2.93292619      5.25207158      3.51417196
  C      4.20295571      4.92288611      4.28957750
  C      3.72531625      7.97058869     -0.46296713
  H      3.18309371      5.42123804      0.79888805
  H      3.75454658      9.47859487      1.82549863
  H      3.28401528      7.98349954      4.11082805
  H      2.11355710      5.46855953      4.20438857
  H      2.66372019      4.42150117      2.85151643
  H      4.00719509      4.11055846      4.98455862
  H      4.54380125      5.79773461      4.84131546
  H      4.97677424      4.60589075      3.59543047
  H      4.36336941      8.86080691     -0.46535146
  H      2.77471601      8.21334151     -0.94182167
  H      4.19989083      7.15735210     -1.00819997
  N      5.57384776      6.84712353      8.66977211
  C      6.45237361      7.60622093      8.01027108
  N      6.47692037      8.81633538      8.56235871
  C      5.51883370      8.86287745      9.53523584
  C      4.95353160      7.63053501      9.60175209
  C      5.23869620      5.50039432      8.28840944
  C      6.41349961      4.55544804      8.51076256
  C      7.30038304      9.89259256      8.09173764
  H      7.20618498      7.26596293      7.31879810
  H      5.31665537      9.75014670     10.09929910
  H      4.17025215      7.25726007     10.22913183
  H      4.37101844      5.18486936      8.87194177
  H      4.96452456      5.52556192      7.22894085
  H      6.16465368      3.56449033      8.14238547
  H      6.65360726      4.48479677      9.56942630
  H      7.29142349      4.91422716      7.98126580
  H      8.23018785      9.45998074      7.71364553
  H      7.50865911     10.58731137      8.90287443
  H      6.79580841     10.41754097      7.27773789
  N      6.92301004      8.87076848      3.48904270
  C      7.40486629      8.01807240      4.38347094
  N      7.42834419      6.80183927      3.85407523
  C      6.92864445      6.88002947      2.58442542
  C      6.61777534      8.18387653      2.35568058
  C      6.68851999     10.27782351      3.69384465
  C      7.98942917     11.01729072      3.98125805
  C      7.88903100      5.62473115      4.53474529
  H      7.79788618      8.24464862      5.35870796
  H      6.83147152      6.02106793      1.95292874
  H      6.22690641      8.70389489      1.49685952
  H      6.22005773     10.65974840      2.78151338
  H      5.99077297     10.37922278      4.52985480
  H      7.77788119     12.06511718      4.17486087
  H      8.65056455     10.95417852      3.12038472
  H      8.49814377     10.59515614      4.84524871
  H      8.53691418      5.93986008      5.35599427
  H      8.44242783      4.98784433      3.84626863
  H      7.04288694      5.06721531      4.93887580
 Cl      4.98389847      8.02777056      5.97179470
 Cl      9.40922752      7.48962793      6.93552929
 Cl      2.74932075      3.36610605      0.71873251
 Cl     -7.27550419    -10.65103692     35.22330100
 Cl      5.47210478     10.64654967      0.48673262

