#B3LYP/6-31+G(d) OPT FREQ

16, Energy =   -226.21736980 au

0 1
  N      2.22463500     -2.11229900     -0.47031800
  H      1.50261600     -2.71340900     -0.06236400
  H      1.89621400     -1.97924500     -1.43268400
  H      2.07642300     -1.19058400     -0.04055000
  N     -2.68888900     -1.02538100      1.35547200
  H     -1.88637800     -1.23701700      1.95588600
  H     -2.49627200     -0.07176700      1.02922000
  H     -2.53226900     -1.59982700      0.52217100
  N     -0.96411700      1.06363000     -2.38142300
  H     -0.21387800      0.84284800     -1.71287700
  H     -1.80542700      0.70090100     -1.92192300
  H     -1.05107100      2.08376600     -2.35102600
  N      1.55774000      2.03884200      1.46529000
  H      1.05530200      1.83542600      2.33462800
  H      1.70595200      1.11604400      1.03500100
  H      0.84320100      2.45931700      0.86136700

