#B3LYP/6-31+G(d) OPT FREQ

16, Energy =   -226.22011199 au

0 1
  N      1.24299400      0.09483100      1.65573100
  H      0.67958900      0.86885800      1.27942500
  H      1.16302300      0.15623600      2.67667500
  H      0.70991600     -0.74050900      1.38058700
  N     -1.92749000     -2.63827900     -0.26779600
  H     -1.64606500     -2.61139000      0.71698500
  H     -2.28468100     -1.69218100     -0.44049400
  H     -1.03919300     -2.65525400     -0.77835200
  N      2.74736500     -0.05120500     -1.16677200
  H      2.58962500     -0.00571800     -0.15297100
  H      2.10604700     -0.77871900     -1.49151300
  H      2.34886100      0.81771100     -1.52928500
  N     -2.00152100      2.56163800     -0.35213300
  H     -2.24953100      1.56624400     -0.38882100
  H     -1.63351600      2.68140500      0.59665800
  H     -1.17351200      2.62442700     -0.95210200

