#B3LYP/6-31+G(d) OPT FREQ

16, Energy =   -226.20897572 au

0 1
  N     -1.87893500      0.75838500     -1.05200300
  H     -1.54247400     -0.04504600     -0.49629500
  H     -2.51400000      0.37393600     -1.75777500
  H     -2.46710700      1.29825000     -0.41081100
  N      0.58847100      1.47361800      1.11135700
  H      0.12608300      1.84774500      0.27791000
  H      0.25958700      2.02613300      1.90585200
  H      0.19940700      0.53223100      1.22632500
  N     -0.84582300     -1.70856800      0.65431300
  H     -1.37362900     -1.67122600      1.53860000
  H      0.09120800     -2.02822700      0.94630800
  H     -1.25218900     -2.52788200      0.17743000
  N      2.44302400     -0.32219300     -0.91362200
  H      2.25723200      0.38533100     -0.19458200
  H      2.51278600     -1.20154200     -0.39609600
  H      1.55592800     -0.39839200     -1.41717600

