#B3LYP/6-31+G(d) OPT FREQ

16, Energy =   -226.21813930 au

0 1
  N     -2.68662200      1.21659400      0.77732700
  H     -2.30404900      0.70945300      1.57935900
  H     -1.93520400      1.85572900      0.50620700
  H     -2.71017400      0.51896500      0.02505500
  N     -1.64129600     -1.12083600     -1.28075200
  H     -0.89132500     -0.44089300     -1.46467100
  H     -1.55246800     -1.83588600     -2.01231900
  H     -1.34078100     -1.57715900     -0.40989200
  N      2.69653800      1.16377300     -0.83920100
  H      2.71394600      0.50853900     -0.04949300
  H      2.30504100      0.61806100     -1.61101800
  H      1.95413300      1.82634500     -0.60174700
  N      1.63168200     -1.05029800      1.33742600
  H      1.34757600     -1.56887300      0.49653100
  H      0.87388000     -0.36543300      1.46270500
  H      1.53730700     -1.71348400      2.11568300

