#B3LYP/6-31+G(d) OPT FREQ

16, Energy =   -226.20933709 au

0 1
  N      0.84151000     -0.22339500      1.93625900
  H      1.73245400      0.26020300      1.83986300
  H      0.85412000     -0.79785100      2.78675700
  H      0.10237200      0.46974100      2.04523400
  N      1.31934600     -1.95616200     -1.13153000
  H      1.64105400     -1.10670100     -1.60551500
  H      1.12655500     -1.66975900     -0.16693400
  H      0.38690700     -2.12830100     -1.52176700
  N     -3.09666100     -0.24684500     -0.17015700
  H     -3.36639900      0.56496500      0.39492400
  H     -2.55695000      0.16642900     -0.94766900
  H     -2.35896700     -0.69897500      0.38107400
  N      0.97431400      2.26551700     -0.69130400
  H      0.80776800      1.31370700     -0.33946300
  H      1.33737100      2.12132500     -1.64137800
  H      0.02415800      2.63140400     -0.82799400

