#B3LYP/6-31+G(d) OPT FREQ

16, Energy =   -226.22004971 au

0 1
  N     -2.00563700     -2.55301500     -0.36250700
  H     -1.64712500     -2.71419300      0.58381200
  H     -2.26824200     -1.56078600     -0.35485100
  H     -1.16975300     -2.57474200     -0.95452300
  N     -1.87409200      2.68761800     -0.22835900
  H     -0.95369900      2.60563500     -0.67302000
  H     -2.36197000      1.83892700     -0.53335900
  H     -1.68103000      2.50968800      0.76202800
  N      2.67870900      0.00622400     -1.21499100
  H      2.56869100     -0.07857900     -0.19763500
  H      1.94944500     -0.59981300     -1.59856100
  H      2.35941000      0.95301300     -1.43202600
  N      1.27777100     -0.14112200      1.66499700
  H      0.77811700      0.71825600      1.40289700
  H      1.21393900     -0.20742200      2.68678100
  H      0.67495600     -0.88792000      1.29447600

