#B3LYP/6-31+G(d) OPT FREQ

439, Energy = -13269.72611968 au

0 1
 Ti      1.57128836      0.72800956      4.67673679
 Ti      1.58029676      3.69115210      4.68267602
 Ti      1.58460956      6.63677326      4.67113762
 Ti      1.59794705     12.54450193      4.67769518
 Ti      1.57567500      9.59316779      4.66871342
 Ti      1.60446506     15.49769594      4.67683152
 Ti      7.86712235      0.72489629      4.73315449
 Ti     14.18723020      0.72695163      4.74307197
 Ti      7.87554628      3.67584156      4.72595978
 Ti     14.19658591      3.67501492      4.74417060
 Ti      7.91371625      6.63888240      4.79216513
 Ti     14.20195711      6.62860359      4.73453104
 Ti      7.87850718     12.55287872      4.73187589
 Ti     14.19675245     12.55536480      4.72520563
 Ti      7.88213832      9.59963042      4.77070187
 Ti     14.18089403      9.60398092      4.79675833
 Ti      7.89014741     15.50048580      4.73492233
 Ti     14.23934034     15.50203115      4.73382726
 Ti      4.71669737      2.20067237      5.31579445
 Ti      4.72495683      5.14787217      5.29082867
 Ti      4.72108619      8.10737966      5.29631349
 Ti      4.71968398     14.02383922      5.31478097
 Ti      4.71972716     11.07352466      5.29405822
 Ti      4.71944016     16.97000344      5.29363844
 Ti     11.02816286      2.16764870      5.32212315
 Ti     17.32524447      2.19860205      5.16211526
 Ti     11.04634409      4.95889224      4.73474917
 Ti     17.30833793      5.14863937      5.14248670
 Ti     11.03728535      8.35272253      4.77966840
 Ti     17.32856191      8.10717502      5.14569639
 Ti     11.04520738     14.07945627      5.28809072
 Ti     17.33322867     14.03622789      5.14494992
 Ti     11.03229567     11.17769917      5.25971833
 Ti     17.32881460     11.08366852      5.12549638
 Ti     11.04386774     16.97672945      5.28388612
 Ti     17.33025265     16.97725892      5.13184384
  O      4.72944000      0.71772264      3.75492300
  O      4.72546389      3.69423325      3.75657452
  O      4.72636839      6.62175930      3.75065185
  O      4.66371042     12.53121090      3.75678888
  O      4.72582730      9.60143444      3.75235885
  O      4.66037692     15.50327909      3.75430676
  O     11.03042947      0.71963589      3.77242470
  O     17.25575962      0.71990141      3.65914780
  O     11.03147943      3.54947943      3.66728549
  O     17.18693313      3.69824944      3.65909539
  O     10.96029340      6.61886582      3.73744287
  O     17.24742981      6.62256956      3.64900710
  O     11.02536120     12.52898041      3.75811128
  O     17.19156720     12.53055800      3.62418589
  O     11.03065607      9.68867050      3.61123164
  O     17.26026676      9.59800832      3.62379572
  O     11.02162829     15.51077264      3.75877447
  O     17.18508416     15.50569548      3.65462324
  O      4.72927652      0.72131213      6.38524361
  O      4.72768748      3.69105593      6.38757380
  O      4.74056798      6.63294140      6.37653216
  O      4.80720970      9.58901810      6.39092217
  O      4.73020722     12.53111155      6.38646953
  O      4.72841655     15.50345490      6.38617347
  O     11.03167658      0.71532362      6.40175192
  O     17.41164954      0.72113782      6.23748703
  O     11.02623628      3.76796062      6.24341995
  O     17.41225217      3.69179233      6.23666343
  O     17.34170318      6.63528161      6.23174716
  O     11.03254360     12.59220022      6.39496829
  O     17.40953955     12.53645843      6.22505839
  O     11.03066957      9.55131070      6.14255830
  O     17.33400318      9.59954921      6.23251482
  O     11.03042112     15.51293668      6.39192791
  O     17.41189660     15.49912519      6.23242403
  O      2.76516832      2.20717999      5.12310923
  O      2.76720110      5.17769185      5.12813815
  O      2.77234136      8.11743875      5.12512034
  O      2.75631650     14.01755082      5.19881508
  O      2.76791966     11.03544939      5.13424511
  O      2.76478321     17.00038036      5.12822005
  O      9.06841450      2.19924479      5.12645862
  O     15.35399998      2.20430194      5.19685666
  O      9.12225359      5.12964242      5.04137042
  O     15.30078551      5.13239033      5.27346335
  O      9.12819481      8.10718367      5.04317654
  O     15.35031011      8.10827574      5.12141171
  O      9.07278071     14.02296937      5.12485683
  O     15.35793623     14.01780182      5.20417946
  O      9.07147799     11.09566259      5.12326733
  O     15.35996476     11.08608206      5.12508595
  O      9.07055433     16.99388580      5.12647805
  O     15.35889373     17.00265596      5.20184029
  O      0.38918674      2.21146137      4.96330360
  O      0.38476684      5.17902325      4.96770410
  O      0.38655879      8.11392469      4.97031341
  O      0.38675655     14.01793363      4.89018229
  O      0.39153011     11.08997577      4.96461474
  O      0.39376952     16.94323353      4.96333599
  O      6.68331845      2.20358015      5.12387774
  O     12.98060736      2.20476948      5.12155551
  O      6.69859846      5.13023839      5.12650450
  O     12.92377545      5.19131052      5.04093675
  O      6.68923104      8.11123852      5.03664872
  O     12.92381171      8.04738494      4.97303922
  O      6.68148193     14.02392822      5.12024254
  O     12.98042375     14.03101739      5.05033705
  O      6.68809918     11.09221648      5.12001240
  O     12.98238501     11.10098863      5.11565460
  O      6.68490399     16.94826210      5.12287117
  O     12.98958589     16.94921325      5.11711781
 Ti      1.57765514      2.20228166      1.49638516
 Ti      1.57979766      5.15777993      1.50537364
 Ti      1.59406800      8.11520313      1.47354885
 Ti      1.55993911     14.02194160      1.49937033
 Ti      1.57615611     11.07282127      1.49906915
 Ti      1.57619144     16.96977505      1.50254054
 Ti      7.87242152      2.21627311      1.49777907
 Ti     14.25352990      2.20358556      1.50104653
 Ti      7.87192209      5.17673066      1.52833579
 Ti     14.24832406      5.17394282      1.50775728
 Ti      7.87769830      8.10395143      1.53903026
 Ti     14.26550848      8.12216362      1.52053393
 Ti      7.87302038     14.01649301      1.50690368
 Ti     14.20226924     14.01012010      1.48268561
 Ti      7.87496649     11.04964921      1.52191132
 Ti     14.25825827     11.05423698      1.52353356
 Ti      7.88143339     16.97457544      1.51640648
 Ti     14.22473673     16.97076125      1.51512509
 Ti      4.72654025      0.72078494      1.93026099
 Ti      4.71448897      3.67332788      1.92691912
 Ti      4.72122132      6.62720241      1.92671916
 Ti      4.69823084     12.54320583      1.92351884
 Ti      4.72770014      9.59526673      1.92716704
 Ti      4.70290051     15.49645718      1.91690991
 Ti     11.04511375      0.71956259      1.94129183
 Ti     17.39713898      0.71863528      1.76331353
 Ti     11.07129785      3.63935867      1.59821369
 Ti     17.35696996      3.68377190      1.76950807
 Ti     11.04235193      6.62919323      1.76583431
 Ti     17.40028760      6.63586838      1.76687829
 Ti     11.02980709     12.55181209      1.91991249
 Ti     17.34883088     12.54872220      1.76236410
 Ti     11.09740163      9.61997426      1.61918250
 Ti     17.40613657      9.59491355      1.76632925
 Ti     11.05030558     15.50607855      1.91029614
 Ti     17.33797833     15.49692765      1.75606709
  O      1.65054756      0.71938319      2.89162493
  O      1.65461087      3.69021293      2.89735654
  O      1.65646655      6.62478189      2.88656634
  O      1.66051623     12.53479780      2.89035191
  O      1.65374834      9.59840663      2.88804908
  O      1.65959522     15.50499230      2.88875305
  O      7.87634774      0.72013068      2.95381966
  O     14.25792544      0.72780222      2.95835978
  O      7.87682966      3.68720974      2.94584703
  O     14.26030004      3.69236746      2.95946296
  O      7.87995111      6.61762224      2.95989082
  O     14.26459263      6.61698934      2.95103778
  O      7.87972169     12.53226428      2.95115674
  O     14.25816903     12.53140288      2.94393106
  O      7.87918055      9.60345447      2.96324315
  O     14.25430628      9.60159883      2.96716168
  O      7.87859781     15.50578778      2.95478432
  O     14.26244413     15.50919709      2.95354835
  O      5.96673423      2.20376948      1.68219537
  O      5.95924788      5.14161130      1.67843940
  O      5.96667545      8.10853326      1.68263270
  O      5.95037552     14.01856850      1.68749547
  O      5.95735449     11.08621598      1.68316849
  O      5.95681796     16.95444750      1.68465899
  O     12.29226606      2.20186429      1.69091970
  O     18.62562207      2.21234757      1.83574546
  O     12.28468858      5.13922651      1.75668461
  O     18.62379659      5.13562907      1.83152885
  O     12.28939400      8.10367581      1.75626628
  O     18.65399288      8.10892024      1.83210764
  O     12.28611979     14.01959169      1.76166744
  O     18.61238010     14.02270402      1.83353967
  O     12.28885025     11.09148303      1.68708096
  O     18.63174207     11.09153719      1.82896953
  O     12.28858656     16.99168818      1.76224283
  O     18.61914660     16.94867575      1.83469544
  O      3.46949718      2.20166662      1.68751268
  O      3.47329034      5.14215564      1.68435095
  O      3.47516343      8.11051818      1.68756982
  O      3.46346729     14.01874299      1.68060443
  O      3.47179587     11.04590521      1.68324386
  O      3.46882814     16.99548000      1.68392099
  O      9.78400252      2.20589405      1.68097742
  O     16.13839645      2.20113592      1.53088595
  O      9.79577503      5.13230874      1.68008123
  O     16.14152585      5.18227041      1.52661884
  O      9.79552075      8.11110098      1.67977339
  O     16.14685696      8.11078964      1.52980554
  O      9.78339045     14.02114268      1.68959128
  O     16.11409227     14.02065015      1.52795081
  O      9.79065343     11.04722481      1.67713356
  O     16.14150694     11.03999744      1.52310714
  O      9.78844325     16.99046694      1.69166444
  O     16.13348717     16.99683404      1.53304438
  O      1.42392286      0.72095927      0.31662353
  O      1.42666154      3.68275714      0.31642029
  O      1.42365790      6.62255499      0.31814356
  O      1.43206522     12.54372815      0.30956187
  O      1.42562669      9.60299301      0.31303536
  O      1.42945567     15.50334262      0.31257259
  O      7.87021057      0.72595671      0.38033229
  O     14.17815194      0.72349595      0.39036626
  O      7.87562880      3.69222749      0.36334082
  O     14.17977304      3.69382206      0.38646080
  O      7.87810527      6.63074471      0.37633136
  O     14.17681971      6.63489247      0.38605383
  O      7.87144434     12.53383300      0.38346550
  O     14.18003708     12.53006407      0.38547549
  O      7.87328604      9.58418608      0.38227170
  O     14.17559356      9.58554437      0.38733886
  O      7.86967305     15.50326743      0.38573945
  O     14.17553295     15.50864460      0.38608982
 Ti      1.21202878      0.71942337     -1.75752175
 Ti      1.21975963      3.67805472     -1.74110369
 Ti      1.22111716      6.63676035     -1.75533981
 Ti      1.22849042     12.55412208     -1.76041713
 Ti      1.22816291      9.59460746     -1.76515972
 Ti      1.22709747     15.51555674     -1.75892704
 Ti      7.81592619      0.70815691     -1.75287415
 Ti     14.38158119      0.71494161     -1.74474248
 Ti      7.80441092      3.67854378     -1.75257935
 Ti     14.37667801      3.68492053     -1.74500898
 Ti      7.81736303      6.63892084     -1.77625323
 Ti     14.39331679      6.64344134     -1.77549943
 Ti      7.83696388     12.55658465     -1.73913837
 Ti     14.41282109     12.55049553     -1.76073407
 Ti      7.83299588      9.59648136     -1.75768511
 Ti     14.39561168      9.59560913     -1.76648022
 Ti      7.81589198     15.51260085     -1.75790650
 Ti     14.40934091     15.51010728     -1.75630241
 Ti      4.52199207      2.19050397     -1.59161227
 Ti      4.52373824      5.15426536     -1.55230957
 Ti      4.52843688      8.11879900     -1.54955447
 Ti      4.52242957     14.02788300     -1.58772473
 Ti      4.53079138     11.07968169     -1.59126437
 Ti      4.51358792     17.00203362     -1.57907569
 Ti     11.08823270      2.18916184     -1.58733264
 Ti     17.65604673      2.19783817     -1.55248141
 Ti     11.08432363      5.15913192     -1.58883355
 Ti     17.66893902      5.16127300     -1.56595475
 Ti     11.08575948      8.12733818     -1.56890861
 Ti     17.68745030      8.12028738     -1.56060303
 Ti     11.11629116     14.03082356     -1.56258642
 Ti     17.68818458     14.03100085     -1.55812337
 Ti     11.09881007     11.08605676     -1.56207204
 Ti     17.69462097     11.07650451     -1.55489374
 Ti     11.10410228     16.98111534     -1.56242844
 Ti     17.67622831     16.99175535     -1.55176830
 Ti      1.30369970      2.19477698     -5.04772806
 Ti      1.31326858      5.12839073     -5.06048784
 Ti      1.30359635      8.09782824     -5.06656126
 Ti      1.29820627     14.00489532     -5.04681690
 Ti      1.30725828     11.07251972     -5.06745828
 Ti      1.18973891     16.97985252     -5.06112726
 Ti      7.88664190      2.17917051     -5.02767245
 Ti     14.46226053      2.18925818     -5.03217217
 Ti      7.90023798      5.11224747     -5.08518336
 Ti     14.48015323      5.11228181     -5.08395591
 Ti      7.89220098      8.10050586     -5.10119657
 Ti     14.47471673      8.10258285     -5.09878726
 Ti      7.90136460     14.00015542     -5.07435167
 Ti     14.48080143     14.05402072     -5.10816406
 Ti      7.90055760     11.08069982     -5.06893140
 Ti     14.49247153     11.08398312     -5.09432306
 Ti      7.79144382     16.97928002     -5.08718989
 Ti     14.46501303     16.99934982     -5.08067258
 Ti      4.50271475      0.67853286     -4.94553993
 Ti      4.59738169      3.66118026     -4.86025121
 Ti      4.58795066      6.64821928     -4.84268471
 Ti      4.60536881     12.54970432     -4.94445295
 Ti      4.55390161      9.59821891     -4.86271729
 Ti      4.49358231     15.51842562     -4.83720531
 Ti     11.07892972      0.67118858     -4.85049841
 Ti     17.67039963      0.74986841     -4.84503371
 Ti     11.18252030      3.65473495     -4.85592691
 Ti     17.76770073      3.67433079     -4.85125511
 Ti     11.15972404      6.63934225     -4.84267761
 Ti     17.67063633      6.63780116     -4.84905131
 Ti     11.17112152     12.54017942     -4.85760201
 Ti     17.76086193     12.53997692     -4.85494921
 Ti     11.16798488      9.57195295     -4.84076381
 Ti     17.76496603      9.55830793     -4.84740701
 Ti     11.15998408     15.52326962     -4.85603701
 Ti     17.68720513     15.52292102     -4.85539531
  O      4.50839834      0.71926992     -0.34010255
  O      4.51180337      3.65916205     -0.33721896
  O      4.51887021      6.64521145     -0.32875073
  O      4.51161413     12.54452216     -0.34718719
  O      4.51399177      9.60207771     -0.33527885
  O      4.50858683     15.51999133     -0.34330149
  O     11.09212688      0.71909360     -0.33393099
  O     17.67306178      0.71960864     -0.32624871
  O     11.08613898      3.66660444     -0.33859022
  O     17.67187301      3.67579707     -0.33129425
  O     11.08687446      6.64625509     -0.33282806
  O     17.67882754      6.64937818     -0.33545907
  O     11.09791677     12.54805853     -0.32934449
  O     17.68737917     12.54486418     -0.32962540
  O     11.08851999      9.59698890     -0.33086711
  O     17.68149603      9.59505575     -0.33078478
  O     11.10075215     15.51551655     -0.32912311
  O     17.68061647     15.52098124     -0.32755178
  O      2.52847458      2.19707998     -1.67679718
  O      2.52832193      5.15681189     -1.59992168
  O      2.53206906      8.11526864     -1.59912302
  O      2.53200488     14.03278665     -1.67630701
  O      2.53590867     11.07698556     -1.67230927
  O      2.52677125     17.00029427     -1.67740184
  O      9.11406052      2.19884860     -1.67864147
  O     15.66027481      2.20128230     -1.60682690
  O      9.11371744      5.15178411     -1.67959564
  O     15.68312353      5.15606203     -1.67034020
  O      9.11588751      8.11405535     -1.67463941
  O     15.69644398      8.11745240     -1.67484631
  O      9.12073918     14.04147867     -1.59814875
  O     15.69885201     14.03604208     -1.59316166
  O      9.11817370     11.07935990     -1.59758737
  O     15.69852913     11.07306338     -1.59923402
  O      9.11734449     16.99008436     -1.59691019
  O     15.68684695     16.99659036     -1.59685671
  O     -0.10072615      2.20175982     -1.60244580
  O     -0.09579378      5.15240906     -1.67670630
  O     -0.07514011      8.11249668     -1.67802483
  O     -0.07997509     14.03686181     -1.67843142
  O     -0.06251463     11.07923762     -1.67655237
  O     -0.08890155     16.99510939     -1.61109102
  O      6.53071700      2.19032508     -1.67172479
  O     13.06451304      2.19708269     -1.67898259
  O      6.52627547      5.15988572     -1.66892877
  O     13.06317794      5.16288646     -1.67592260
  O      6.53688575      8.12127107     -1.67584601
  O     13.06545909      8.11712948     -1.67680757
  O      6.53388118     14.03021317     -1.67708590
  O     13.11354058     14.03292781     -1.68743175
  O      6.54354296     11.07890128     -1.68159552
  O     13.07787612     11.07697217     -1.68239403
  O      6.51999909     16.98999569     -1.67025951
  O     13.08496487     16.98988190     -1.68200143
  O      4.53786602      0.70758103     -2.98954359
  O      4.54403684      3.67864201     -2.95059834
  O      4.54353763      6.63931244     -2.94590286
  O      4.54931403     12.55001857     -3.00414110
  O      4.54615327      9.59563606     -2.95107735
  O      4.54267882     15.51674688     -2.94921836
  O     11.04506561      0.70543087     -2.94757649
  O     17.62852426      0.71755324     -2.94208397
  O     11.12606359      3.67523189     -2.95208329
  O     17.64228330      3.67077609     -2.95163973
  O     11.04922967      6.64422526     -2.95127756
  O     17.63499851      6.63701585     -2.94918907
  O     11.04627626     12.55632668     -2.94631192
  O     17.63298724     12.55424168     -2.94694517
  O     11.04425365      9.59476593     -2.94705195
  O     17.71067856      9.59785626     -2.94637882
  O     11.11407381     15.51567955     -2.94738607
  O     17.62761844     15.51867240     -2.94770046
  O      1.16730567      0.72032719     -3.64614811
  O      1.24142946      3.67323106     -3.64559693
  O      1.25422791      6.63149921     -3.64836590
  O      1.24573761     12.55074781     -3.65661944
  O      1.24698371      9.58996293     -3.65482874
  O      1.24079256     15.51415465     -3.64850943
  O      7.84755798      0.65822843     -3.65317225
  O     14.42834009      0.70876926     -3.65114366
  O      7.75772666      3.67282632     -3.65992126
  O     14.41503644      3.67239459     -3.65396500
  O      7.84214381      6.64068554     -3.67133771
  O     14.41796467      6.63181367     -3.66446899
  O      7.92675950     12.55284276     -3.66165811
  O     14.51267915     12.55925359     -3.66583031
  O      7.92393007      9.59868971     -3.66747811
  O     14.42720808      9.60368487     -3.66342736
  O      7.85000805     15.50868029     -3.66170648
  O     14.51404225     15.51566398     -3.66595195
  O      5.75671982      2.16324301     -5.01435958
  O      5.75975303      5.15448081     -5.01530183
  O      5.76556015      8.14428322     -5.01539114
  O      5.75653567     14.03557632     -5.01636649
  O      5.78411909     11.08130282     -5.09072135
  O      5.76834411     16.97608362     -5.06744863
  O     12.34626893      2.16631666     -5.01136403
  O     18.92693223      2.16872457     -5.01182269
  O     12.35319463      5.15333855     -5.01211275
  O     18.92479343      5.15702773     -5.01288125
  O     12.38480073      8.10072512     -4.98445473
  O     18.93235633      8.05623231     -5.01259674
  O     12.35286853     14.03080392     -5.00936198
  O     18.92498483     14.03379252     -5.01470270
  O     12.37642473     11.06886562     -4.98555887
  O     18.93427013     11.04978872     -5.01564865
  O     12.37237753     16.98851532     -4.98794386
  O     18.92340113     17.02074082     -5.01352979
  O      3.22044698      2.16860736     -5.01483320
  O      3.22535877      5.15561492     -5.01428870
  O      3.22541749      8.14656077     -5.01556500
  O      3.21913862     14.03265332     -5.01720782
  O      3.22122825     11.05180552     -5.01514675
  O      3.19055941     16.98232112     -4.99293827
  O      9.80662525      2.17046481     -5.01076665
  O     16.39100653      2.17423529     -5.01482192
  O      9.80898175      5.15497252     -5.01507870
  O     16.39253663      5.14959923     -5.01645290
  O      9.91779221      8.13950322     -5.26757440
  O     16.39480123      8.14363750     -5.01513968
  O      9.93210408     14.03336686     -5.19536888
  O     16.50904620     14.03254601     -5.20296988
  O      9.94031990     11.07440600     -5.19705723
  O     16.52457610     11.06721736     -5.19701748
  O      9.89109481     16.97561302     -5.19278317
  O     16.48915131     16.99946280     -5.19553072
  O      1.25088733      0.71851802     -6.18411049
  O      1.24511498      3.66782190     -6.18930110
  O      1.25127594      6.62532430     -6.18717196
  O      1.25087407     12.55127117     -6.19242414
  O      1.24291261      9.58949157     -6.18831295
  O      1.24441005     15.50623474     -6.18118684
  O      7.75313584      0.71934483     -6.18526678
  O     14.41859379      0.72195880     -6.18694327
  O      7.83046563      3.64396538     -6.19141794
  O     14.34234357      3.65447390     -6.19246203
  O      7.75205245      6.62230557     -6.19408800
  O     14.42223371      6.61949175     -6.19834840
  O      7.75339785     12.55076102     -6.19457837
  O     14.33862573     12.56087697     -6.19719842
  O      7.82727799      9.60001139     -6.19093921
  O     14.41597948      9.59571130     -6.19876855
  O      7.75657171     15.49529594     -6.18846092
  O     14.33832771     15.52441085     -6.20041601
 Au      7.42163093      9.21680878      7.78232262
 Au      9.46407026     10.88752543      8.63970439
 Au     14.59975129      9.43743217      7.68743806
 Au     10.69970020      5.70896365      7.51571168
 Au     12.11152573     10.11891035      8.56178921
 Au      9.93904202      8.17676198      8.29958142
 Au      7.81026697      6.49751767      7.64634805
 Au     12.68765498      7.48939949      7.93690024

