#B3LYP/6-31+G(d) OPT FREQ

439, Energy = -13269.72360851 au

0 1
 Ti      1.57136089      0.72639319      4.67665264
 Ti      1.57370237      3.68904924      4.68124326
 Ti      1.57893562      6.64143106      4.66993262
 Ti      1.59197964     12.54531852      4.67382192
 Ti      1.56297012      9.59117998      4.66974163
 Ti      1.60326279     15.49989163      4.67608448
 Ti      7.87194971      0.72556939      4.73243317
 Ti     14.19026912      0.72277694      4.74384008
 Ti      7.87882988      3.69569628      4.78707049
 Ti     14.19198983      3.66827205      4.74397742
 Ti      7.89427350      6.64229177      4.72871086
 Ti     14.21139150      6.62269286      4.73940394
 Ti      7.85342728     12.52193634      4.84489637
 Ti     14.22350626     12.54313367      4.73472370
 Ti      7.87628034      9.58711411      4.73958795
 Ti     14.17359767      9.59365709      4.74785602
 Ti      7.88494087     15.48962716      4.72801016
 Ti     14.22586957     15.49880660      4.73585691
 Ti      4.71666306      2.18208732      5.28000759
 Ti      4.71006523      5.13826636      5.21218966
 Ti      4.71407570      8.15827158      5.27077817
 Ti      4.71008304     14.03676738      5.30632168
 Ti      4.70117558     11.10006532      5.28189337
 Ti      4.72472194     16.96985362      5.29198606
 Ti     11.02660656      2.14487307      5.28762601
 Ti     17.32391439      2.19445530      5.16238471
 Ti     11.03053045      4.93216534      4.87953986
 Ti     17.30686527      5.14619103      5.14146989
 Ti     11.03715294      8.31352421      4.85930963
 Ti     17.31340394      8.11099532      5.16613301
 Ti     11.04268321     14.07968958      5.28004546
 Ti     17.33491288     14.02502720      5.14955307
 Ti     11.03243910     11.17986755      5.28338132
 Ti     17.32561524     11.06725770      5.13650882
 Ti     11.03630093     16.97372208      5.28695684
 Ti     17.32771097     16.96891585      5.13228668
  O      4.72885358      0.71888949      3.75467501
  O      4.72229790      3.69509043      3.74542726
  O      4.71977276      6.62305531      3.74249126
  O      4.65057939     12.52617575      3.75323473
  O      4.71878748      9.53241119      3.75406433
  O      4.65443421     15.50586097      3.75549724
  O     11.03044347      0.71672757      3.76461339
  O     17.25551181      0.72051468      3.65763161
  O     11.03013344      3.61630076      3.67477700
  O     17.18777502      3.69799537      3.65658319
  O     11.02255231      6.63536720      3.75487387
  O     17.18745041      6.62454962      3.65680790
  O     11.02587574     12.52764967      3.75811613
  O     17.18409188     12.52827817      3.63676875
  O     11.04147382      9.61813835      3.66653023
  O     17.25376659      9.59581194      3.65015348
  O     11.02148565     15.50860368      3.75799644
  O     17.18525046     15.50658384      3.65121871
  O      4.72998196      0.72548450      6.38006209
  O      4.73450352      3.69558803      6.33263104
  O      4.73644858      6.62527077      6.38648032
  O      4.73725315      9.59886740      6.39163003
  O      4.73253628     12.53160594      6.38247192
  O      4.72865140     15.50395389      6.38807219
  O     11.03164950      0.70946855      6.39748866
  O     17.41140606      0.71913510      6.23673982
  O     11.02961691      3.70167054      6.24226082
  O     17.41100811      3.68998944      6.23614193
  O     17.34340561      6.62745453      6.23523233
  O     11.02659109     12.59492789      6.39356849
  O     17.41038994     12.53635062      6.22839861
  O     11.02759558      9.60264071      6.24913478
  O     17.40866710      9.59594048      6.23498659
  O     11.03063534     15.50870772      6.39090748
  O     17.41170408     15.49759116      6.23253993
  O      2.76368629      2.20797617      5.12256933
  O      2.76609741      5.18130315      5.12710532
  O      2.76681379      8.11359013      5.12708521
  O      2.75388058     14.01759657      5.19894379
  O      2.76371103     11.03382831      5.12682608
  O      2.76518765     17.00099345      5.12827826
  O      9.06634570      2.19969655      5.12208450
  O     15.35543084      2.20387403      5.19647963
  O      9.12036434      5.19466826      5.05058686
  O     15.29948329      5.13118948      5.27535179
  O      9.12280925      8.09958552      5.11264892
  O     15.31718660      8.12213011      5.20338083
  O      9.06471984     14.02202902      5.12301993
  O     15.35871062     14.01748710      5.20488824
  O      9.07830041     11.03393212      5.03712494
  O     15.35154141     11.03077304      5.19809396
  O      9.06835035     16.98890815      5.12540968
  O     15.35851154     16.99869530      5.20175176
  O      0.38897783      2.21146865      4.96288369
  O      0.38323643      5.18030333      4.96601824
  O      0.38245532      8.10912803      4.96548016
  O      0.38628191     14.01869637      4.88929903
  O      0.39231856     11.09347769      4.96253117
  O      0.39357890     16.94309113      4.96302344
  O      6.68150073      2.20416477      5.11986956
  O     12.98621318      2.20192361      5.11833689
  O      6.68369445      5.19531868      5.03369251
  O     12.93188466      5.19304381      5.04780520
  O      6.69161092      8.10553008      5.11634717
  O     12.93295815      8.05334172      5.12058751
  O      6.64190575     14.02595465      5.04738362
  O     12.98580098     14.01934078      5.04900223
  O      6.62772102     11.02736608      4.95921122
  O     12.98286377     11.09409960      5.11762172
  O      6.68386466     16.94818211      5.12380313
  O     12.98943285     16.94713854      5.11663978
 Ti      1.57484828      2.20216230      1.49504326
 Ti      1.57615065      5.15950414      1.50565299
 Ti      1.58851903      8.11458497      1.47487646
 Ti      1.55814604     14.02192573      1.49757668
 Ti      1.57436376     11.07193658      1.49960661
 Ti      1.57317713     16.97007079      1.50308829
 Ti      7.87891579      2.21721076      1.52562834
 Ti     14.25047744      2.20191436      1.50196860
 Ti      7.87827790      5.16707857      1.52814770
 Ti     14.24220927      5.16414710      1.51235257
 Ti      7.88214722      8.12292050      1.46927870
 Ti     14.25639505      8.11283230      1.50047241
 Ti      7.87231388     13.99870896      1.53341449
 Ti     14.19663517     14.02169566      1.49403942
 Ti      7.87312472     11.08597431      1.58876347
 Ti     14.25143614     11.06985341      1.50804322
 Ti      7.88006975     16.96652980      1.49860256
 Ti     14.22061733     16.97457411      1.51494173
 Ti      4.72698987      0.71871523      1.91955849
 Ti      4.71625116      3.67164641      1.90059703
 Ti      4.72367094      6.62470508      1.91498113
 Ti      4.69739915     12.53514566      1.91824925
 Ti      4.72294344      9.57747370      1.91526857
 Ti      4.69836753     15.49363817      1.91359633
 Ti     11.04547759      0.72145802      1.92748335
 Ti     17.39360119      0.71855131      1.76407660
 Ti     11.07265602      3.65398592      1.61484011
 Ti     17.35676605      3.68399759      1.76753036
 Ti     11.04442797      6.62910644      1.84086420
 Ti     17.38524895      6.63603070      1.77627586
 Ti     11.02976077     12.54451657      1.92802930
 Ti     17.34482288     12.54930353      1.76637386
 Ti     11.08929682      9.60559162      1.62550845
 Ti     17.40171981      9.59442355      1.77190996
 Ti     11.04357729     15.50473344      1.90742885
 Ti     17.33517495     15.49743577      1.75763964
  O      1.65020143      0.71976871      2.89184555
  O      1.65370354      3.69040568      2.89811567
  O      1.65552199      6.62487220      2.88556448
  O      1.65888318     12.53395578      2.88821807
  O      1.65181623      9.59699592      2.88918772
  O      1.65915202     15.50468799      2.88836465
  O      7.87542759      0.71841657      2.95465072
  O     14.25818054      0.72597308      2.95807970
  O      7.87824660      3.69080166      2.96767528
  O     14.26073096      3.69241852      2.95905321
  O      7.88213820      6.62939115      2.93962767
  O     14.26192964      6.62371289      2.95637407
  O      7.87891018     12.53009517      2.96409467
  O     14.26061946     12.52594848      2.95299593
  O      7.87963988      9.53625126      2.94830006
  O     14.25484474      9.59740756      2.96354640
  O      7.87867053     15.50735017      2.95181923
  O     14.26197172     15.50847294      2.95408461
  O      5.96244628      2.20304860      1.68169669
  O      5.95906093      5.14172788      1.67698473
  O      5.96199575      8.10240254      1.67655772
  O      5.93388124     14.01625837      1.68673290
  O      5.94350425     11.04945615      1.68792703
  O      5.94821567     16.95381077      1.68446835
  O     12.29246468      2.20382520      1.69414151
  O     18.62526417      2.21229904      1.83551032
  O     12.28866085      5.14162909      1.75330620
  O     18.61864888      5.14291357      1.83452854
  O     12.29441006      8.10744017      1.75434346
  O     18.64465653      8.10780268      1.83590202
  O     12.28594077     14.01811335      1.76227497
  O     18.60903479     14.02066809      1.83453987
  O     12.28819274     11.08072041      1.69654725
  O     18.62184668     11.08996657      1.83245869
  O     12.28848147     16.98925931      1.76129153
  O     18.61761544     16.94832578      1.83452699
  O      3.46829326      2.20167442      1.68677308
  O      3.47093816      5.13767514      1.68230723
  O      3.46906570      8.10558454      1.68309676
  O      3.46009110     14.01548140      1.68089844
  O      3.46770606     11.03931113      1.68436142
  O      3.46634890     16.99696195      1.68362089
  O      9.78700528      2.20712762      1.68319729
  O     16.13707659      2.20152089      1.53100742
  O      9.79794985      5.14186297      1.68171509
  O     16.13782952      5.17984894      1.52597623
  O      9.80000967      8.10890089      1.67788844
  O     16.14337452      8.11409561      1.53039732
  O      9.78439383     14.02041683      1.68893849
  O     16.10676190     14.01916210      1.52947369
  O      9.79274523     11.03564347      1.68561102
  O     16.13858990     11.03873842      1.52614437
  O      9.78739219     16.98999770      1.69026340
  O     16.13110491     16.99668946      1.53288472
  O      1.42377584      0.72108491      0.31663697
  O      1.42553151      3.68396889      0.31702256
  O      1.42277828      6.62287665      0.31835380
  O      1.43023172     12.54067836      0.31036657
  O      1.42374958      9.60280644      0.31411675
  O      1.42903909     15.50303513      0.31282496
  O      7.86918234      0.73219824      0.38464597
  O     14.17760310      0.72385734      0.38981996
  O      7.87566896      3.68961188      0.37796361
  O     14.18022599      3.69324157      0.38708357
  O      7.87716065      6.61913051      0.34709842
  O     14.17826334      6.63013221      0.38513006
  O      7.86999559     12.52659013      0.39338814
  O     14.17876629     12.53410415      0.38605602
  O      7.87399986      9.60549631      0.38187576
  O     14.17649625      9.59040743      0.38681448
  O      7.86643890     15.49397746      0.38774033
  O     14.17514163     15.50801908      0.38774475
 Ti      1.21202878      0.71942337     -1.75752175
 Ti      1.21975963      3.67805472     -1.74110369
 Ti      1.22111716      6.63676035     -1.75533981
 Ti      1.22849042     12.55412208     -1.76041713
 Ti      1.22816291      9.59460746     -1.76515972
 Ti      1.22709747     15.51555674     -1.75892704
 Ti      7.81592619      0.70815691     -1.75287415
 Ti     14.38158119      0.71494161     -1.74474248
 Ti      7.80441092      3.67854378     -1.75257935
 Ti     14.37667801      3.68492053     -1.74500898
 Ti      7.81736303      6.63892084     -1.77625323
 Ti     14.39331679      6.64344134     -1.77549943
 Ti      7.83696388     12.55658465     -1.73913837
 Ti     14.41282109     12.55049553     -1.76073407
 Ti      7.83299588      9.59648136     -1.75768511
 Ti     14.39561168      9.59560913     -1.76648022
 Ti      7.81589198     15.51260085     -1.75790650
 Ti     14.40934091     15.51010728     -1.75630241
 Ti      4.52199207      2.19050397     -1.59161227
 Ti      4.52373824      5.15426536     -1.55230957
 Ti      4.52843688      8.11879900     -1.54955447
 Ti      4.52242957     14.02788300     -1.58772473
 Ti      4.53079138     11.07968169     -1.59126437
 Ti      4.51358792     17.00203362     -1.57907569
 Ti     11.08823270      2.18916184     -1.58733264
 Ti     17.65604673      2.19783817     -1.55248141
 Ti     11.08432363      5.15913192     -1.58883355
 Ti     17.66893902      5.16127300     -1.56595475
 Ti     11.08575948      8.12733818     -1.56890861
 Ti     17.68745030      8.12028738     -1.56060303
 Ti     11.11629116     14.03082356     -1.56258642
 Ti     17.68818458     14.03100085     -1.55812337
 Ti     11.09881007     11.08605676     -1.56207204
 Ti     17.69462097     11.07650451     -1.55489374
 Ti     11.10410228     16.98111534     -1.56242844
 Ti     17.67622831     16.99175535     -1.55176830
 Ti      1.30369970      2.19477698     -5.04772806
 Ti      1.31326858      5.12839073     -5.06048784
 Ti      1.30359635      8.09782824     -5.06656126
 Ti      1.29820627     14.00489532     -5.04681690
 Ti      1.30725828     11.07251972     -5.06745828
 Ti      1.18973891     16.97985252     -5.06112726
 Ti      7.88664190      2.17917051     -5.02767245
 Ti     14.46226053      2.18925818     -5.03217217
 Ti      7.90023798      5.11224747     -5.08518336
 Ti     14.48015323      5.11228181     -5.08395591
 Ti      7.89220098      8.10050586     -5.10119657
 Ti     14.47471673      8.10258285     -5.09878726
 Ti      7.90136460     14.00015542     -5.07435167
 Ti     14.48080143     14.05402072     -5.10816406
 Ti      7.90055760     11.08069982     -5.06893140
 Ti     14.49247153     11.08398312     -5.09432306
 Ti      7.79144382     16.97928002     -5.08718989
 Ti     14.46501303     16.99934982     -5.08067258
 Ti      4.50271475      0.67853286     -4.94553993
 Ti      4.59738169      3.66118026     -4.86025121
 Ti      4.58795066      6.64821928     -4.84268471
 Ti      4.60536881     12.54970432     -4.94445295
 Ti      4.55390161      9.59821891     -4.86271729
 Ti      4.49358231     15.51842562     -4.83720531
 Ti     11.07892972      0.67118858     -4.85049841
 Ti     17.67039963      0.74986841     -4.84503371
 Ti     11.18252030      3.65473495     -4.85592691
 Ti     17.76770073      3.67433079     -4.85125511
 Ti     11.15972404      6.63934225     -4.84267761
 Ti     17.67063633      6.63780116     -4.84905131
 Ti     11.17112152     12.54017942     -4.85760201
 Ti     17.76086193     12.53997692     -4.85494921
 Ti     11.16798488      9.57195295     -4.84076381
 Ti     17.76496603      9.55830793     -4.84740701
 Ti     11.15998408     15.52326962     -4.85603701
 Ti     17.68720513     15.52292102     -4.85539531
  O      4.50839834      0.71926992     -0.34010255
  O      4.51180337      3.65916205     -0.33721896
  O      4.51887021      6.64521145     -0.32875073
  O      4.51161413     12.54452216     -0.34718719
  O      4.51399177      9.60207771     -0.33527885
  O      4.50858683     15.51999133     -0.34330149
  O     11.09212688      0.71909360     -0.33393099
  O     17.67306178      0.71960864     -0.32624871
  O     11.08613898      3.66660444     -0.33859022
  O     17.67187301      3.67579707     -0.33129425
  O     11.08687446      6.64625509     -0.33282806
  O     17.67882754      6.64937818     -0.33545907
  O     11.09791677     12.54805853     -0.32934449
  O     17.68737917     12.54486418     -0.32962540
  O     11.08851999      9.59698890     -0.33086711
  O     17.68149603      9.59505575     -0.33078478
  O     11.10075215     15.51551655     -0.32912311
  O     17.68061647     15.52098124     -0.32755178
  O      2.52847458      2.19707998     -1.67679718
  O      2.52832193      5.15681189     -1.59992168
  O      2.53206906      8.11526864     -1.59912302
  O      2.53200488     14.03278665     -1.67630701
  O      2.53590867     11.07698556     -1.67230927
  O      2.52677125     17.00029427     -1.67740184
  O      9.11406052      2.19884860     -1.67864147
  O     15.66027481      2.20128230     -1.60682690
  O      9.11371744      5.15178411     -1.67959564
  O     15.68312353      5.15606203     -1.67034020
  O      9.11588751      8.11405535     -1.67463941
  O     15.69644398      8.11745240     -1.67484631
  O      9.12073918     14.04147867     -1.59814875
  O     15.69885201     14.03604208     -1.59316166
  O      9.11817370     11.07935990     -1.59758737
  O     15.69852913     11.07306338     -1.59923402
  O      9.11734449     16.99008436     -1.59691019
  O     15.68684695     16.99659036     -1.59685671
  O     -0.10072615      2.20175982     -1.60244580
  O     -0.09579378      5.15240906     -1.67670630
  O     -0.07514011      8.11249668     -1.67802483
  O     -0.07997509     14.03686181     -1.67843142
  O     -0.06251463     11.07923762     -1.67655237
  O     -0.08890155     16.99510939     -1.61109102
  O      6.53071700      2.19032508     -1.67172479
  O     13.06451304      2.19708269     -1.67898259
  O      6.52627547      5.15988572     -1.66892877
  O     13.06317794      5.16288646     -1.67592260
  O      6.53688575      8.12127107     -1.67584601
  O     13.06545909      8.11712948     -1.67680757
  O      6.53388118     14.03021317     -1.67708590
  O     13.11354058     14.03292781     -1.68743175
  O      6.54354296     11.07890128     -1.68159552
  O     13.07787612     11.07697217     -1.68239403
  O      6.51999909     16.98999569     -1.67025951
  O     13.08496487     16.98988190     -1.68200143
  O      4.53786602      0.70758103     -2.98954359
  O      4.54403684      3.67864201     -2.95059834
  O      4.54353763      6.63931244     -2.94590286
  O      4.54931403     12.55001857     -3.00414110
  O      4.54615327      9.59563606     -2.95107735
  O      4.54267882     15.51674688     -2.94921836
  O     11.04506561      0.70543087     -2.94757649
  O     17.62852426      0.71755324     -2.94208397
  O     11.12606359      3.67523189     -2.95208329
  O     17.64228330      3.67077609     -2.95163973
  O     11.04922967      6.64422526     -2.95127756
  O     17.63499851      6.63701585     -2.94918907
  O     11.04627626     12.55632668     -2.94631192
  O     17.63298724     12.55424168     -2.94694517
  O     11.04425365      9.59476593     -2.94705195
  O     17.71067856      9.59785626     -2.94637882
  O     11.11407381     15.51567955     -2.94738607
  O     17.62761844     15.51867240     -2.94770046
  O      1.16730567      0.72032719     -3.64614811
  O      1.24142946      3.67323106     -3.64559693
  O      1.25422791      6.63149921     -3.64836590
  O      1.24573761     12.55074781     -3.65661944
  O      1.24698371      9.58996293     -3.65482874
  O      1.24079256     15.51415465     -3.64850943
  O      7.84755798      0.65822843     -3.65317225
  O     14.42834009      0.70876926     -3.65114366
  O      7.75772666      3.67282632     -3.65992126
  O     14.41503644      3.67239459     -3.65396500
  O      7.84214381      6.64068554     -3.67133771
  O     14.41796467      6.63181367     -3.66446899
  O      7.92675950     12.55284276     -3.66165811
  O     14.51267915     12.55925359     -3.66583031
  O      7.92393007      9.59868971     -3.66747811
  O     14.42720808      9.60368487     -3.66342736
  O      7.85000805     15.50868029     -3.66170648
  O     14.51404225     15.51566398     -3.66595195
  O      5.75671982      2.16324301     -5.01435958
  O      5.75975303      5.15448081     -5.01530183
  O      5.76556015      8.14428322     -5.01539114
  O      5.75653567     14.03557632     -5.01636649
  O      5.78411909     11.08130282     -5.09072135
  O      5.76834411     16.97608362     -5.06744863
  O     12.34626893      2.16631666     -5.01136403
  O     18.92693223      2.16872457     -5.01182269
  O     12.35319463      5.15333855     -5.01211275
  O     18.92479343      5.15702773     -5.01288125
  O     12.38480073      8.10072512     -4.98445473
  O     18.93235633      8.05623231     -5.01259674
  O     12.35286853     14.03080392     -5.00936198
  O     18.92498483     14.03379252     -5.01470270
  O     12.37642473     11.06886562     -4.98555887
  O     18.93427013     11.04978872     -5.01564865
  O     12.37237753     16.98851532     -4.98794386
  O     18.92340113     17.02074082     -5.01352979
  O      3.22044698      2.16860736     -5.01483320
  O      3.22535877      5.15561492     -5.01428870
  O      3.22541749      8.14656077     -5.01556500
  O      3.21913862     14.03265332     -5.01720782
  O      3.22122825     11.05180552     -5.01514675
  O      3.19055941     16.98232112     -4.99293827
  O      9.80662525      2.17046481     -5.01076665
  O     16.39100653      2.17423529     -5.01482192
  O      9.80898175      5.15497252     -5.01507870
  O     16.39253663      5.14959923     -5.01645290
  O      9.91779221      8.13950322     -5.26757440
  O     16.39480123      8.14363750     -5.01513968
  O      9.93210408     14.03336686     -5.19536888
  O     16.50904620     14.03254601     -5.20296988
  O      9.94031990     11.07440600     -5.19705723
  O     16.52457610     11.06721736     -5.19701748
  O      9.89109481     16.97561302     -5.19278317
  O     16.48915131     16.99946280     -5.19553072
  O      1.25088733      0.71851802     -6.18411049
  O      1.24511498      3.66782190     -6.18930110
  O      1.25127594      6.62532430     -6.18717196
  O      1.25087407     12.55127117     -6.19242414
  O      1.24291261      9.58949157     -6.18831295
  O      1.24441005     15.50623474     -6.18118684
  O      7.75313584      0.71934483     -6.18526678
  O     14.41859379      0.72195880     -6.18694327
  O      7.83046563      3.64396538     -6.19141794
  O     14.34234357      3.65447390     -6.19246203
  O      7.75205245      6.62230557     -6.19408800
  O     14.42223371      6.61949175     -6.19834840
  O      7.75339785     12.55076102     -6.19457837
  O     14.33862573     12.56087697     -6.19719842
  O      7.82727799      9.60001139     -6.19093921
  O     14.41597948      9.59571130     -6.19876855
  O      7.75657171     15.49529594     -6.18846092
  O     14.33832771     15.52441085     -6.20041601
 Au     11.56974238      6.59517272      7.37198568
 Au      9.08201972      5.84450781      8.02592798
 Au      7.21819033      3.96917502      7.74413230
 Au      7.88729212     12.20340756      7.60364887
 Au      7.93802038      7.83531930      9.83271112
 Au      7.13486758      9.66697866      7.86894752
 Au      9.72892728      8.61378096      7.91506151
 Au      6.42886787      6.70324901      7.88896606

