#B3LYP/6-31+G(d) OPT FREQ

439, Energy = -13269.73549258 au

0 1
 Ti      1.57269106      0.72832692      4.67690533
 Ti      1.57883381      3.69026049      4.68316111
 Ti      1.57189600      6.63371710      4.66978250
 Ti      1.59072049     12.54619531      4.69457222
 Ti      1.56202293      9.58954216      4.67841793
 Ti      1.60284883     15.50040086      4.68650086
 Ti      7.86688257      0.72564430      4.73298469
 Ti     14.19528809      0.72398546      4.74375274
 Ti      7.88994579      3.68541318      4.73805946
 Ti     14.19643325      3.67384347      4.74401233
 Ti      7.88837056      6.64555130      4.77418487
 Ti     14.18076773      6.63393614      4.74432397
 Ti      7.86599573     12.53145603      4.78896621
 Ti     14.22167730     12.54416962      4.73800011
 Ti      7.87224565      9.59876568      4.77619081
 Ti     14.18003496      9.59777154      4.74564163
 Ti      7.89278659     15.49364559      4.73466499
 Ti     14.21729589     15.49765263      4.73763386
 Ti      4.72026144      2.18650025      5.30827446
 Ti      4.72093989      5.11460756      5.26888631
 Ti      4.69836809      8.10995101      5.21412638
 Ti      4.71973204     14.02543802      5.30250779
 Ti      4.68858923     11.04293378      5.27331643
 Ti      4.72382895     16.96301156      5.29130128
 Ti     11.03315178      2.15149851      5.30117552
 Ti     17.32620775      2.19381892      5.16473226
 Ti     11.01769673      4.96194331      4.80766068
 Ti     17.29571229      5.14546264      5.14311525
 Ti     11.02854673      8.36602866      4.82791776
 Ti     17.30711364      8.11039321      5.16711047
 Ti     11.03919054     14.07697173      5.28454882
 Ti     17.33819746     14.02582729      5.16390195
 Ti     11.03957609     11.18045160      5.25671122
 Ti     17.32766924     11.07395647      5.13984471
 Ti     11.03769778     16.97115923      5.28810405
 Ti     17.32995995     16.96690635      5.13375201
  O      4.72929796      0.71896375      3.75627587
  O      4.72473839      3.69527217      3.75700326
  O      4.71993806      6.61768152      3.73495342
  O      4.65105198     12.53091543      3.75653120
  O      4.65317658      9.59409153      3.73920651
  O      4.66205073     15.50233003      3.75600581
  O     11.03108229      0.71920966      3.76698162
  O     17.25486916      0.72111684      3.65678041
  O     11.02455881      3.60571325      3.66984282
  O     17.18644896      3.69838894      3.65629165
  O     11.02332358      6.62279890      3.75192793
  O     17.18962942      6.62529046      3.65420616
  O     11.02520647     12.53321967      3.75498572
  O     17.24269991     12.53067416      3.65557019
  O     11.03174825      9.68323072      3.62835105
  O     17.25197302      9.59586928      3.63357222
  O     11.02247663     15.51133987      3.75759485
  O     17.24425185     15.50429991      3.65806914
  O      4.72962231      0.71875129      6.38417584
  O      4.72704573      3.68773593      6.38388966
  O      4.79185148      6.62571353      6.37302397
  O      4.73834496      9.54582645      6.32861178
  O      4.81019975     12.52263891      6.39431295
  O      4.72881586     15.49746899      6.38454094
  O     11.03217240      0.71197277      6.39869732
  O     17.41243522      0.71995462      6.23680076
  O     11.03699735      3.71834847      6.24887764
  O     17.41052459      3.69065082      6.23645683
  O     17.34354671      6.62861841      6.23438383
  O     11.03679618     12.60026401      6.39068141
  O     17.40906648     12.53259727      6.23673085
  O     11.02652015      9.59446599      6.16812282
  O     17.40861269      9.59329566      6.23189149
  O     11.03104937     15.51141989      6.39277252
  O     17.40974708     15.50315386      6.23852059
  O      2.76649422      2.20744335      5.12331868
  O      2.76792412      5.18177923      5.13051604
  O      2.76248678      8.10766225      5.12544382
  O      2.76340835     14.01573233      5.20019148
  O      2.75591255     11.04162025      5.19933588
  O      2.76641281     16.99855188      5.12971712
  O      9.06914079      2.19956594      5.12423654
  O     15.35580858      2.20416073      5.19683691
  O      9.11914312      5.18631098      5.12101034
  O     15.29531716      5.13884420      5.27393241
  O      9.12452883      8.09706124      5.04516922
  O     15.30948724      8.11932639      5.20570314
  O      9.06999305     14.02072390      5.12217249
  O     15.36209986     14.01930654      5.20241931
  O      9.06447015     11.09580259      5.11510445
  O     15.35734319     11.03715898      5.19632240
  O      9.06965767     16.99448160      5.12627861
  O     15.35976740     16.99551415      5.19905731
  O      0.38990472      2.21154154      4.96276973
  O      0.38029453      5.17590613      4.96569178
  O      0.38190095      8.11103867      4.96541481
  O      0.39559241     14.01851297      4.96099197
  O      0.39265185     11.08744860      4.96252691
  O      0.39592518     16.94660185      4.96538530
  O      6.68630348      2.20988453      5.12299935
  O     12.98669092      2.20323734      5.11770761
  O      6.69837048      5.12732717      5.12008605
  O     12.92757872      5.18834806      5.04214709
  O      6.67338802      8.11877599      4.96074859
  O     12.92525745      8.09772582      5.04648173
  O      6.67384725     14.03369361      5.11433998
  O     12.98663641     14.02046221      5.04884621
  O      6.62857137     11.02889902      4.95528799
  O     12.99004887     11.09906850      5.11879494
  O      6.68468874     16.94857064      5.12355774
  O     12.98921524     16.95013610      5.11685914
 Ti      1.57602992      2.20144539      1.49584325
 Ti      1.57702170      5.15902533      1.50569883
 Ti      1.58771857      8.11560693      1.47665392
 Ti      1.56933244     14.02070636      1.50405557
 Ti      1.57892141     11.07310762      1.50564784
 Ti      1.57601287     16.96787440      1.50318618
 Ti      7.87631378      2.21111008      1.50616849
 Ti     14.25209845      2.20292098      1.50190977
 Ti      7.87767975      5.18073392      1.52460374
 Ti     14.24475771      5.16539897      1.51406636
 Ti      7.88277865      8.12587023      1.52838297
 Ti     14.26067645      8.11418579      1.50379308
 Ti      7.87510612     14.00304643      1.51883684
 Ti     14.20444861     14.02027469      1.49614756
 Ti      7.87619601     11.06177616      1.56190719
 Ti     14.25524471     11.06940762      1.50930645
 Ti      7.88267252     16.96387399      1.51199281
 Ti     14.22512930     16.97436233      1.51548563
 Ti      4.72678132      0.72047451      1.92693382
 Ti      4.71562917      3.67234717      1.91753647
 Ti      4.72265281      6.62447699      1.90971103
 Ti      4.70237189     12.54169051      1.92641772
 Ti      4.71809337      9.59164436      1.89869557
 Ti      4.70402394     15.49645004      1.91251255
 Ti     11.04617824      0.72108513      1.93459866
 Ti     17.39374919      0.71980297      1.76648220
 Ti     11.07102657      3.64844012      1.60277238
 Ti     17.35834115      3.68426492      1.76911884
 Ti     11.04898147      6.63002750      1.82045183
 Ti     17.38705449      6.63558331      1.77995486
 Ti     11.03065073     12.55037171      1.92154612
 Ti     17.35864684     12.55035887      1.77311272
 Ti     11.09441772      9.61582870      1.62309607
 Ti     17.40221683      9.59524664      1.77021534
 Ti     11.04885903     15.50634477      1.90978632
 Ti     17.34871683     15.49794952      1.75852589
  O      1.65110416      0.71990580      2.89198341
  O      1.65414022      3.69059336      2.89857988
  O      1.65566938      6.62421011      2.88530262
  O      1.65970394     12.53671287      2.90453277
  O      1.65449351      9.59839372      2.89578148
  O      1.65854025     15.50285728      2.89599042
  O      7.87605622      0.71991075      2.95445122
  O     14.25851349      0.72625784      2.95793333
  O      7.88052503      3.69321239      2.95737981
  O     14.26087367      3.69221135      2.95847810
  O      7.88151258      6.61601978      2.96074665
  O     14.26194386      6.62293939      2.95913075
  O      7.87883800     12.53611546      2.96314941
  O     14.26282390     12.52680510      2.95371741
  O      7.88685497      9.59703920      2.95510970
  O     14.25746529      9.60149413      2.95886268
  O      7.87827030     15.50659484      2.95458557
  O     14.26389506     15.50819334      2.95502648
  O      5.96594427      2.20421653      1.68285769
  O      5.95882132      5.13961389      1.67742159
  O      5.96523520      8.10891213      1.68295110
  O      5.94310519     14.01857583      1.68752708
  O      5.94724126     11.07334599      1.68565930
  O      5.95414837     16.95608339      1.68451964
  O     12.29239463      2.20394558      1.69365952
  O     18.62621578      2.21237426      1.83543481
  O     12.28853258      5.13843280      1.75310112
  O     18.61931357      5.14211776      1.83440859
  O     12.29350211      8.10766309      1.75619511
  O     18.64746793      8.10789495      1.83549898
  O     12.28933073     14.01971494      1.76146336
  O     18.62053610     14.01887788      1.82953117
  O     12.29153437     11.08998427      1.68898016
  O     18.63309217     11.09087690      1.82831549
  O     12.29001298     16.99075705      1.76150782
  O     18.62351969     16.95423189      1.83224384
  O      3.46976825      2.20200289      1.68754196
  O      3.47179703      5.13693614      1.68256832
  O      3.47130829      8.10763077      1.68291343
  O      3.46490899     14.01967859      1.68206950
  O      3.47046128     11.04811664      1.68244786
  O      3.46909447     16.99571098      1.68478066
  O      9.78563661      2.20727573      1.68290259
  O     16.13754423      2.20148479      1.53042031
  O      9.79951490      5.14004175      1.68119897
  O     16.13852486      5.18014068      1.52562905
  O      9.80316129      8.10918092      1.68273473
  O     16.14413085      8.11402795      1.52866047
  O      9.78503566     14.02203022      1.68898460
  O     16.12505247     14.01883207      1.53531796
  O      9.79520883     11.04708940      1.67799932
  O     16.14279543     11.04792544      1.52835664
  O      9.78896162     16.99053072      1.69094692
  O     16.13474638     16.99141163      1.53751570
  O      1.42499556      0.72083551      0.31687938
  O      1.42578470      3.68363830      0.31681069
  O      1.42364287      6.62316418      0.31852852
  O      1.48367301     12.54106479      0.31298652
  O      1.42559012      9.60355194      0.31560656
  O      1.43107907     15.50215628      0.31412582
  O      7.87027556      0.72663671      0.38311342
  O     14.17838579      0.72319872      0.39018356
  O      7.87607066      3.69168402      0.37496039
  O     14.18006933      3.69365132      0.38710747
  O      7.87754026      6.63227719      0.37782504
  O     14.17772901      6.63076700      0.38642162
  O      7.87102534     12.53080634      0.38964377
  O     14.18094492     12.53730362      0.38628732
  O      7.87419419      9.59575468      0.38668011
  O     14.17722762      9.59062704      0.38689620
  O      7.86827374     15.49886071      0.38704338
  O     14.17726688     15.50666463      0.38910277
 Ti      1.21202878      0.71942337     -1.75752175
 Ti      1.21975963      3.67805472     -1.74110369
 Ti      1.22111716      6.63676035     -1.75533981
 Ti      1.22849042     12.55412208     -1.76041713
 Ti      1.22816291      9.59460746     -1.76515972
 Ti      1.22709747     15.51555674     -1.75892704
 Ti      7.81592619      0.70815691     -1.75287415
 Ti     14.38158119      0.71494161     -1.74474248
 Ti      7.80441092      3.67854378     -1.75257935
 Ti     14.37667801      3.68492053     -1.74500898
 Ti      7.81736303      6.63892084     -1.77625323
 Ti     14.39331679      6.64344134     -1.77549943
 Ti      7.83696388     12.55658465     -1.73913837
 Ti     14.41282109     12.55049553     -1.76073407
 Ti      7.83299588      9.59648136     -1.75768511
 Ti     14.39561168      9.59560913     -1.76648022
 Ti      7.81589198     15.51260085     -1.75790650
 Ti     14.40934091     15.51010728     -1.75630241
 Ti      4.52199207      2.19050397     -1.59161227
 Ti      4.52373824      5.15426536     -1.55230957
 Ti      4.52843688      8.11879900     -1.54955447
 Ti      4.52242957     14.02788300     -1.58772473
 Ti      4.53079138     11.07968169     -1.59126437
 Ti      4.51358792     17.00203362     -1.57907569
 Ti     11.08823270      2.18916184     -1.58733264
 Ti     17.65604673      2.19783817     -1.55248141
 Ti     11.08432363      5.15913192     -1.58883355
 Ti     17.66893902      5.16127300     -1.56595475
 Ti     11.08575948      8.12733818     -1.56890861
 Ti     17.68745030      8.12028738     -1.56060303
 Ti     11.11629116     14.03082356     -1.56258642
 Ti     17.68818458     14.03100085     -1.55812337
 Ti     11.09881007     11.08605676     -1.56207204
 Ti     17.69462097     11.07650451     -1.55489374
 Ti     11.10410228     16.98111534     -1.56242844
 Ti     17.67622831     16.99175535     -1.55176830
 Ti      1.30369970      2.19477698     -5.04772806
 Ti      1.31326858      5.12839073     -5.06048784
 Ti      1.30359635      8.09782824     -5.06656126
 Ti      1.29820627     14.00489532     -5.04681690
 Ti      1.30725828     11.07251972     -5.06745828
 Ti      1.18973891     16.97985252     -5.06112726
 Ti      7.88664190      2.17917051     -5.02767245
 Ti     14.46226053      2.18925818     -5.03217217
 Ti      7.90023798      5.11224747     -5.08518336
 Ti     14.48015323      5.11228181     -5.08395591
 Ti      7.89220098      8.10050586     -5.10119657
 Ti     14.47471673      8.10258285     -5.09878726
 Ti      7.90136460     14.00015542     -5.07435167
 Ti     14.48080143     14.05402072     -5.10816406
 Ti      7.90055760     11.08069982     -5.06893140
 Ti     14.49247153     11.08398312     -5.09432306
 Ti      7.79144382     16.97928002     -5.08718989
 Ti     14.46501303     16.99934982     -5.08067258
 Ti      4.50271475      0.67853286     -4.94553993
 Ti      4.59738169      3.66118026     -4.86025121
 Ti      4.58795066      6.64821928     -4.84268471
 Ti      4.60536881     12.54970432     -4.94445295
 Ti      4.55390161      9.59821891     -4.86271729
 Ti      4.49358231     15.51842562     -4.83720531
 Ti     11.07892972      0.67118858     -4.85049841
 Ti     17.67039963      0.74986841     -4.84503371
 Ti     11.18252030      3.65473495     -4.85592691
 Ti     17.76770073      3.67433079     -4.85125511
 Ti     11.15972404      6.63934225     -4.84267761
 Ti     17.67063633      6.63780116     -4.84905131
 Ti     11.17112152     12.54017942     -4.85760201
 Ti     17.76086193     12.53997692     -4.85494921
 Ti     11.16798488      9.57195295     -4.84076381
 Ti     17.76496603      9.55830793     -4.84740701
 Ti     11.15998408     15.52326962     -4.85603701
 Ti     17.68720513     15.52292102     -4.85539531
  O      4.50839834      0.71926992     -0.34010255
  O      4.51180337      3.65916205     -0.33721896
  O      4.51887021      6.64521145     -0.32875073
  O      4.51161413     12.54452216     -0.34718719
  O      4.51399177      9.60207771     -0.33527885
  O      4.50858683     15.51999133     -0.34330149
  O     11.09212688      0.71909360     -0.33393099
  O     17.67306178      0.71960864     -0.32624871
  O     11.08613898      3.66660444     -0.33859022
  O     17.67187301      3.67579707     -0.33129425
  O     11.08687446      6.64625509     -0.33282806
  O     17.67882754      6.64937818     -0.33545907
  O     11.09791677     12.54805853     -0.32934449
  O     17.68737917     12.54486418     -0.32962540
  O     11.08851999      9.59698890     -0.33086711
  O     17.68149603      9.59505575     -0.33078478
  O     11.10075215     15.51551655     -0.32912311
  O     17.68061647     15.52098124     -0.32755178
  O      2.52847458      2.19707998     -1.67679718
  O      2.52832193      5.15681189     -1.59992168
  O      2.53206906      8.11526864     -1.59912302
  O      2.53200488     14.03278665     -1.67630701
  O      2.53590867     11.07698556     -1.67230927
  O      2.52677125     17.00029427     -1.67740184
  O      9.11406052      2.19884860     -1.67864147
  O     15.66027481      2.20128230     -1.60682690
  O      9.11371744      5.15178411     -1.67959564
  O     15.68312353      5.15606203     -1.67034020
  O      9.11588751      8.11405535     -1.67463941
  O     15.69644398      8.11745240     -1.67484631
  O      9.12073918     14.04147867     -1.59814875
  O     15.69885201     14.03604208     -1.59316166
  O      9.11817370     11.07935990     -1.59758737
  O     15.69852913     11.07306338     -1.59923402
  O      9.11734449     16.99008436     -1.59691019
  O     15.68684695     16.99659036     -1.59685671
  O     -0.10072615      2.20175982     -1.60244580
  O     -0.09579378      5.15240906     -1.67670630
  O     -0.07514011      8.11249668     -1.67802483
  O     -0.07997509     14.03686181     -1.67843142
  O     -0.06251463     11.07923762     -1.67655237
  O     -0.08890155     16.99510939     -1.61109102
  O      6.53071700      2.19032508     -1.67172479
  O     13.06451304      2.19708269     -1.67898259
  O      6.52627547      5.15988572     -1.66892877
  O     13.06317794      5.16288646     -1.67592260
  O      6.53688575      8.12127107     -1.67584601
  O     13.06545909      8.11712948     -1.67680757
  O      6.53388118     14.03021317     -1.67708590
  O     13.11354058     14.03292781     -1.68743175
  O      6.54354296     11.07890128     -1.68159552
  O     13.07787612     11.07697217     -1.68239403
  O      6.51999909     16.98999569     -1.67025951
  O     13.08496487     16.98988190     -1.68200143
  O      4.53786602      0.70758103     -2.98954359
  O      4.54403684      3.67864201     -2.95059834
  O      4.54353763      6.63931244     -2.94590286
  O      4.54931403     12.55001857     -3.00414110
  O      4.54615327      9.59563606     -2.95107735
  O      4.54267882     15.51674688     -2.94921836
  O     11.04506561      0.70543087     -2.94757649
  O     17.62852426      0.71755324     -2.94208397
  O     11.12606359      3.67523189     -2.95208329
  O     17.64228330      3.67077609     -2.95163973
  O     11.04922967      6.64422526     -2.95127756
  O     17.63499851      6.63701585     -2.94918907
  O     11.04627626     12.55632668     -2.94631192
  O     17.63298724     12.55424168     -2.94694517
  O     11.04425365      9.59476593     -2.94705195
  O     17.71067856      9.59785626     -2.94637882
  O     11.11407381     15.51567955     -2.94738607
  O     17.62761844     15.51867240     -2.94770046
  O      1.16730567      0.72032719     -3.64614811
  O      1.24142946      3.67323106     -3.64559693
  O      1.25422791      6.63149921     -3.64836590
  O      1.24573761     12.55074781     -3.65661944
  O      1.24698371      9.58996293     -3.65482874
  O      1.24079256     15.51415465     -3.64850943
  O      7.84755798      0.65822843     -3.65317225
  O     14.42834009      0.70876926     -3.65114366
  O      7.75772666      3.67282632     -3.65992126
  O     14.41503644      3.67239459     -3.65396500
  O      7.84214381      6.64068554     -3.67133771
  O     14.41796467      6.63181367     -3.66446899
  O      7.92675950     12.55284276     -3.66165811
  O     14.51267915     12.55925359     -3.66583031
  O      7.92393007      9.59868971     -3.66747811
  O     14.42720808      9.60368487     -3.66342736
  O      7.85000805     15.50868029     -3.66170648
  O     14.51404225     15.51566398     -3.66595195
  O      5.75671982      2.16324301     -5.01435958
  O      5.75975303      5.15448081     -5.01530183
  O      5.76556015      8.14428322     -5.01539114
  O      5.75653567     14.03557632     -5.01636649
  O      5.78411909     11.08130282     -5.09072135
  O      5.76834411     16.97608362     -5.06744863
  O     12.34626893      2.16631666     -5.01136403
  O     18.92693223      2.16872457     -5.01182269
  O     12.35319463      5.15333855     -5.01211275
  O     18.92479343      5.15702773     -5.01288125
  O     12.38480073      8.10072512     -4.98445473
  O     18.93235633      8.05623231     -5.01259674
  O     12.35286853     14.03080392     -5.00936198
  O     18.92498483     14.03379252     -5.01470270
  O     12.37642473     11.06886562     -4.98555887
  O     18.93427013     11.04978872     -5.01564865
  O     12.37237753     16.98851532     -4.98794386
  O     18.92340113     17.02074082     -5.01352979
  O      3.22044698      2.16860736     -5.01483320
  O      3.22535877      5.15561492     -5.01428870
  O      3.22541749      8.14656077     -5.01556500
  O      3.21913862     14.03265332     -5.01720782
  O      3.22122825     11.05180552     -5.01514675
  O      3.19055941     16.98232112     -4.99293827
  O      9.80662525      2.17046481     -5.01076665
  O     16.39100653      2.17423529     -5.01482192
  O      9.80898175      5.15497252     -5.01507870
  O     16.39253663      5.14959923     -5.01645290
  O      9.91779221      8.13950322     -5.26757440
  O     16.39480123      8.14363750     -5.01513968
  O      9.93210408     14.03336686     -5.19536888
  O     16.50904620     14.03254601     -5.20296988
  O      9.94031990     11.07440600     -5.19705723
  O     16.52457610     11.06721736     -5.19701748
  O      9.89109481     16.97561302     -5.19278317
  O     16.48915131     16.99946280     -5.19553072
  O      1.25088733      0.71851802     -6.18411049
  O      1.24511498      3.66782190     -6.18930110
  O      1.25127594      6.62532430     -6.18717196
  O      1.25087407     12.55127117     -6.19242414
  O      1.24291261      9.58949157     -6.18831295
  O      1.24441005     15.50623474     -6.18118684
  O      7.75313584      0.71934483     -6.18526678
  O     14.41859379      0.72195880     -6.18694327
  O      7.83046563      3.64396538     -6.19141794
  O     14.34234357      3.65447390     -6.19246203
  O      7.75205245      6.62230557     -6.19408800
  O     14.42223371      6.61949175     -6.19834840
  O      7.75339785     12.55076102     -6.19457837
  O     14.33862573     12.56087697     -6.19719842
  O      7.82727799      9.60001139     -6.19093921
  O     14.41597948      9.59571130     -6.19876855
  O      7.75657171     15.49529594     -6.18846092
  O     14.33832771     15.52441085     -6.20041601
 Au     12.03693004     10.83519821      9.15400616
 Au     11.75676601      8.30948762      8.38322714
 Au      9.52996747     11.38356905      8.40494541
 Au      9.26124484      7.24117743      8.04229232
 Au      7.06674607     12.12682663      7.66882252
 Au     11.48825974      5.80858777      7.49257485
 Au      6.66085313      6.95540644      7.70163684
 Au      7.68044550      9.46369326      7.86040495

