#B3LYP/6-31+G(d) OPT FREQ

439, Energy = -13269.70666055 au

0 1
 Ti      1.57451919      0.72799441      4.67571914
 Ti      1.57812099      3.69167783      4.68207662
 Ti      1.58584934      6.63536905      4.67138210
 Ti      1.59203703     12.54286507      4.68965355
 Ti      1.58013600      9.59207055      4.67709888
 Ti      1.60000088     15.49728747      4.67771384
 Ti      7.86869663      0.72390859      4.73423996
 Ti     14.19006512      0.72911884      4.74160210
 Ti      7.87273322      3.67423140      4.73741119
 Ti     14.19718040      3.67790660      4.74441008
 Ti      7.91390576      6.62733629      4.81623838
 Ti     14.18039516      6.62910338      4.76968265
 Ti      7.86756680     12.54013787      4.73042904
 Ti     14.20145675     12.55377164      4.72394412
 Ti      7.87830646      9.58193323      4.74167518
 Ti     14.20407880      9.60488875      4.77247853
 Ti      7.88759439     15.49791662      4.73377991
 Ti     14.24056618     15.50346412      4.73380320
 Ti      4.71515864      2.20246911      5.31626482
 Ti      4.72452104      5.15254747      5.29557139
 Ti      4.72256848      8.11026382      5.31425196
 Ti      4.72401098     14.01799847      5.31947269
 Ti      4.72163347     11.06051845      5.29637348
 Ti      4.72260496     16.97057977      5.29502810
 Ti     11.03092494      2.16061826      5.28692662
 Ti     17.32505315      2.19466005      5.16102737
 Ti     11.04082851      4.94816727      4.88329385
 Ti     17.30355871      5.13869476      5.14028978
 Ti     11.04042233      8.31748619      4.78969928
 Ti     17.33463488      8.08684212      5.12982185
 Ti     11.04255719     14.12654270      5.22669200
 Ti     17.33138274     14.03322046      5.15493423
 Ti     11.03515072     11.12633812      5.20306097
 Ti     17.32946383     11.09305418      5.12664193
 Ti     11.04445985     16.99604471      5.28198238
 Ti     17.33008450     16.97511604      5.13198135
  O      4.72823101      0.71824755      3.75626259
  O      4.72549625      3.69372169      3.75616277
  O      4.72708064      6.62276249      3.75371576
  O      4.72489084     12.53186591      3.75606669
  O      4.72637210      9.59919705      3.75163027
  O      4.71975066     15.50458503      3.75084349
  O     11.03069408      0.71425405      3.76489031
  O     17.25617280      0.72015713      3.65867834
  O     11.02734572      3.61792833      3.67626963
  O     17.18667911      3.69879905      3.66014860
  O     10.95583320      6.61491242      3.75009011
  O     17.24997484      6.62467601      3.64696201
  O     11.02299787     12.52856502      3.75231073
  O     17.19362824     12.52581975      3.65601297
  O     10.96174204      9.68819404      3.62834522
  O     17.26006258      9.60349771      3.62994135
  O     11.02077092     15.50427771      3.75681149
  O     17.18608343     15.50579149      3.65591063
  O      4.72989250      0.72093865      6.38591467
  O      4.72676775      3.68993135      6.38748646
  O      4.73434902      6.62798802      6.38644533
  O      4.72991673      9.59062495      6.38623249
  O      4.73122262     12.53049360      6.38585329
  O      4.72835020     15.50292958      6.38625663
  O     11.03208353      0.71261373      6.39752720
  O     17.41180391      0.72016139      6.23778354
  O     11.03075951      3.70161701      6.24606473
  O     17.41236146      3.69014392      6.23729183
  O     17.34191494      6.63350058      6.23023018
  O     11.03085373     12.59401893      6.38804322
  O     17.41037816     12.53748148      6.23520220
  O     11.09456495      9.54598234      6.15654888
  O     17.31779995      9.58709294      6.24272683
  O     11.03006013     15.50607086      6.38086740
  O     17.41184444     15.50201393      6.23560715
  O      2.76466288      2.20685698      5.12349198
  O      2.76577272      5.17690864      5.12723262
  O      2.76686277      8.11531032      5.12417823
  O      2.75883430     14.01630280      5.19477331
  O      2.76971327     11.04170297      5.12414538
  O      2.76716598     16.99602188      5.12579929
  O      9.06596396      2.19761028      5.12298542
  O     15.35647085      2.20387229      5.19665632
  O      9.10015843      5.13476160      5.11797981
  O     15.30439857      5.13456766      5.27058701
  O      9.12673938      8.11581417      5.03898265
  O     15.35360747      8.10457640      5.11106609
  O      9.07147274     14.01544797      5.12317536
  O     15.35781458     14.02051941      5.20521360
  O      9.07187640     11.08902886      5.13874377
  O     15.35438743     11.09814488      5.19020016
  O      9.07092230     16.98981707      5.12630876
  O     15.35964948     17.00135825      5.20196482
  O      0.38942874      2.21040070      4.96266659
  O      0.38341608      5.17778651      4.96773145
  O      0.38482688      8.11458283      4.97005495
  O      0.38489105     14.01920282      4.89452136
  O      0.39487195     11.08208630      5.03239220
  O      0.39409904     16.94441324      4.96345294
  O      6.68267975      2.20419320      5.12435633
  O     12.98632376      2.20256927      5.11762028
  O      6.69384121      5.13601632      5.12704587
  O     12.92862652      5.18242688      5.03383782
  O      6.69581212      8.11659299      5.11746652
  O     12.93105456      8.11544074      4.88222383
  O      6.68722711     14.01979180      5.12465455
  O     12.97914338     14.02615568      5.05165184
  O      6.69050080     11.04236259      5.12534557
  O     12.97035555     11.09743543      5.04913001
  O      6.68760147     16.94917058      5.12520952
  O     12.99018972     16.94774322      5.11706446
 Ti      1.57857692      2.20308770      1.49587298
 Ti      1.58125436      5.15816750      1.50547740
 Ti      1.59125352      8.11501666      1.47513992
 Ti      1.56978743     14.01995882      1.50141263
 Ti      1.58025532     11.07301332      1.50398385
 Ti      1.57927804     16.96869029      1.50110843
 Ti      7.87653653      2.21499340      1.50367783
 Ti     14.25241787      2.21008394      1.49759717
 Ti      7.87273094      5.17009278      1.53912725
 Ti     14.24658774      5.18187354      1.52099799
 Ti      7.87324145      8.08274531      1.54400841
 Ti     14.26165285      8.11136360      1.52529888
 Ti      7.88052145     14.01675542      1.50732924
 Ti     14.20988444     14.01044341      1.48552721
 Ti      7.87688334     11.03719345      1.50269730
 Ti     14.25555044     11.04985003      1.51420876
 Ti      7.88014869     16.97687437      1.51555843
 Ti     14.23445060     16.97481678      1.51501879
 Ti      4.72261620      0.72796798      1.93223111
 Ti      4.71770604      3.67619724      1.92849835
 Ti      4.71954371      6.62857692      1.93195072
 Ti      4.72207092     12.54728319      1.92752010
 Ti      4.71687921      9.59678555      1.92647073
 Ti      4.71707060     15.50218240      1.91750878
 Ti     11.04315719      0.72518997      1.92629375
 Ti     17.39896173      0.72109571      1.76301430
 Ti     11.08220000      3.65934454      1.62253239
 Ti     17.35681830      3.68507689      1.76590442
 Ti     11.03127028      6.62860171      1.82701683
 Ti     17.39906726      6.63534901      1.76077534
 Ti     11.03122909     12.54588507      1.91389584
 Ti     17.35507712     12.54782052      1.76369857
 Ti     11.09063451      9.60898722      1.61705824
 Ti     17.40220125      9.59471453      1.76626619
 Ti     11.05979129     15.50820297      1.87038493
 Ti     17.34546798     15.49680601      1.75989416
  O      1.65090333      0.71893137      2.89115715
  O      1.65415570      3.69030777      2.89669600
  O      1.65591038      6.62479139      2.88617849
  O      1.65673760     12.53526463      2.90012442
  O      1.65381147      9.60186326      2.89115130
  O      1.66002785     15.50428687      2.89010354
  O      7.87876168      0.71999080      2.95445340
  O     14.25824098      0.72538075      2.95745911
  O      7.87837766      3.69059019      2.95413647
  O     14.26072170      3.69233131      2.95837047
  O      7.87880374      6.61861119      2.96965482
  O     14.26494025      6.61783619      2.95853184
  O      7.87928781     12.52725153      2.95313759
  O     14.26189609     12.53217587      2.94367411
  O      7.87777077      9.60108615      2.95733925
  O     14.26275392      9.60801423      2.95919724
  O      7.87920676     15.50636888      2.95411103
  O     14.26308759     15.50856988      2.95371676
  O      5.96781426      2.20505883      1.68299389
  O      5.95623795      5.14570949      1.67932747
  O      5.95623706      8.11072398      1.68441622
  O      5.96657116     14.02231468      1.68287548
  O      5.96320735     11.06191400      1.68003018
  O      5.96176897     16.98379409      1.68191468
  O     12.29233985      2.20398496      1.69567008
  O     18.62575773      2.21291308      1.83589472
  O     12.28602413      5.17599901      1.75315272
  O     18.62313502      5.13585568      1.83112248
  O     12.28762011      8.10989739      1.76039875
  O     18.65231308      8.11069004      1.83267153
  O     12.28781186     14.01967456      1.76019698
  O     18.61439006     14.02035920      1.83595535
  O     12.28734563     11.08491899      1.69174004
  O     18.62892479     11.09403061      1.83144176
  O     12.28903824     16.98856652      1.76075594
  O     18.62263808     16.94951156      1.83475985
  O      3.46848450      2.20372087      1.68682160
  O      3.47198001      5.14196644      1.68421245
  O      3.47135300      8.11129233      1.68692465
  O      3.47001449     14.02007485      1.68517219
  O      3.47351391     11.08641338      1.68561604
  O      3.47150243     16.98937580      1.68639019
  O      9.78888120      2.20993466      1.68314880
  O     16.13914651      2.20106401      1.53061815
  O      9.79399184      5.13374167      1.67899871
  O     16.14250480      5.18299385      1.52621459
  O      9.79019307      8.11426628      1.68064004
  O     16.14766965      8.11191634      1.53008017
  O      9.78649445     14.02168749      1.68863018
  O     16.12397917     14.01840002      1.52949656
  O      9.78698194     11.05198331      1.67407362
  O     16.14295429     11.04533332      1.52462195
  O      9.79163776     16.98662828      1.69057539
  O     16.13660910     16.99618949      1.53271834
  O      1.42450691      0.72065131      0.31673351
  O      1.42594315      3.68274896      0.31621914
  O      1.42304740      6.62325012      0.31822252
  O      1.43150980     12.54412709      0.31186460
  O      1.42582428      9.60496964      0.31516876
  O      1.43077116     15.50137248      0.31354848
  O      7.87338191      0.72853545      0.38073263
  O     14.17796849      0.72361747      0.39000169
  O      7.87520042      3.69233269      0.37413470
  O     14.17948095      3.69712284      0.38942228
  O      7.87635631      6.62479614      0.38015975
  O     14.17894994      6.63639582      0.38660461
  O      7.87121792     12.53202533      0.38244137
  O     14.18025166     12.53203155      0.38484083
  O      7.87370801      9.55495982      0.38086549
  O     14.17623558      9.58181165      0.38712547
  O      7.87098329     15.50422650      0.38597688
  O     14.17689567     15.50797361      0.38765957
 Ti      1.21202878      0.71942337     -1.75752175
 Ti      1.21975963      3.67805472     -1.74110369
 Ti      1.22111716      6.63676035     -1.75533981
 Ti      1.22849042     12.55412208     -1.76041713
 Ti      1.22816291      9.59460746     -1.76515972
 Ti      1.22709747     15.51555674     -1.75892704
 Ti      7.81592619      0.70815691     -1.75287415
 Ti     14.38158119      0.71494161     -1.74474248
 Ti      7.80441092      3.67854378     -1.75257935
 Ti     14.37667801      3.68492053     -1.74500898
 Ti      7.81736303      6.63892084     -1.77625323
 Ti     14.39331679      6.64344134     -1.77549943
 Ti      7.83696388     12.55658465     -1.73913837
 Ti     14.41282109     12.55049553     -1.76073407
 Ti      7.83299588      9.59648136     -1.75768511
 Ti     14.39561168      9.59560913     -1.76648022
 Ti      7.81589198     15.51260085     -1.75790650
 Ti     14.40934091     15.51010728     -1.75630241
 Ti      4.52199207      2.19050397     -1.59161227
 Ti      4.52373824      5.15426536     -1.55230957
 Ti      4.52843688      8.11879900     -1.54955447
 Ti      4.52242957     14.02788300     -1.58772473
 Ti      4.53079138     11.07968169     -1.59126437
 Ti      4.51358792     17.00203362     -1.57907569
 Ti     11.08823270      2.18916184     -1.58733264
 Ti     17.65604673      2.19783817     -1.55248141
 Ti     11.08432363      5.15913192     -1.58883355
 Ti     17.66893902      5.16127300     -1.56595475
 Ti     11.08575948      8.12733818     -1.56890861
 Ti     17.68745030      8.12028738     -1.56060303
 Ti     11.11629116     14.03082356     -1.56258642
 Ti     17.68818458     14.03100085     -1.55812337
 Ti     11.09881007     11.08605676     -1.56207204
 Ti     17.69462097     11.07650451     -1.55489374
 Ti     11.10410228     16.98111534     -1.56242844
 Ti     17.67622831     16.99175535     -1.55176830
 Ti      1.30369970      2.19477698     -5.04772806
 Ti      1.31326858      5.12839073     -5.06048784
 Ti      1.30359635      8.09782824     -5.06656126
 Ti      1.29820627     14.00489532     -5.04681690
 Ti      1.30725828     11.07251972     -5.06745828
 Ti      1.18973891     16.97985252     -5.06112726
 Ti      7.88664190      2.17917051     -5.02767245
 Ti     14.46226053      2.18925818     -5.03217217
 Ti      7.90023798      5.11224747     -5.08518336
 Ti     14.48015323      5.11228181     -5.08395591
 Ti      7.89220098      8.10050586     -5.10119657
 Ti     14.47471673      8.10258285     -5.09878726
 Ti      7.90136460     14.00015542     -5.07435167
 Ti     14.48080143     14.05402072     -5.10816406
 Ti      7.90055760     11.08069982     -5.06893140
 Ti     14.49247153     11.08398312     -5.09432306
 Ti      7.79144382     16.97928002     -5.08718989
 Ti     14.46501303     16.99934982     -5.08067258
 Ti      4.50271475      0.67853286     -4.94553993
 Ti      4.59738169      3.66118026     -4.86025121
 Ti      4.58795066      6.64821928     -4.84268471
 Ti      4.60536881     12.54970432     -4.94445295
 Ti      4.55390161      9.59821891     -4.86271729
 Ti      4.49358231     15.51842562     -4.83720531
 Ti     11.07892972      0.67118858     -4.85049841
 Ti     17.67039963      0.74986841     -4.84503371
 Ti     11.18252030      3.65473495     -4.85592691
 Ti     17.76770073      3.67433079     -4.85125511
 Ti     11.15972404      6.63934225     -4.84267761
 Ti     17.67063633      6.63780116     -4.84905131
 Ti     11.17112152     12.54017942     -4.85760201
 Ti     17.76086193     12.53997692     -4.85494921
 Ti     11.16798488      9.57195295     -4.84076381
 Ti     17.76496603      9.55830793     -4.84740701
 Ti     11.15998408     15.52326962     -4.85603701
 Ti     17.68720513     15.52292102     -4.85539531
  O      4.50839834      0.71926992     -0.34010255
  O      4.51180337      3.65916205     -0.33721896
  O      4.51887021      6.64521145     -0.32875073
  O      4.51161413     12.54452216     -0.34718719
  O      4.51399177      9.60207771     -0.33527885
  O      4.50858683     15.51999133     -0.34330149
  O     11.09212688      0.71909360     -0.33393099
  O     17.67306178      0.71960864     -0.32624871
  O     11.08613898      3.66660444     -0.33859022
  O     17.67187301      3.67579707     -0.33129425
  O     11.08687446      6.64625509     -0.33282806
  O     17.67882754      6.64937818     -0.33545907
  O     11.09791677     12.54805853     -0.32934449
  O     17.68737917     12.54486418     -0.32962540
  O     11.08851999      9.59698890     -0.33086711
  O     17.68149603      9.59505575     -0.33078478
  O     11.10075215     15.51551655     -0.32912311
  O     17.68061647     15.52098124     -0.32755178
  O      2.52847458      2.19707998     -1.67679718
  O      2.52832193      5.15681189     -1.59992168
  O      2.53206906      8.11526864     -1.59912302
  O      2.53200488     14.03278665     -1.67630701
  O      2.53590867     11.07698556     -1.67230927
  O      2.52677125     17.00029427     -1.67740184
  O      9.11406052      2.19884860     -1.67864147
  O     15.66027481      2.20128230     -1.60682690
  O      9.11371744      5.15178411     -1.67959564
  O     15.68312353      5.15606203     -1.67034020
  O      9.11588751      8.11405535     -1.67463941
  O     15.69644398      8.11745240     -1.67484631
  O      9.12073918     14.04147867     -1.59814875
  O     15.69885201     14.03604208     -1.59316166
  O      9.11817370     11.07935990     -1.59758737
  O     15.69852913     11.07306338     -1.59923402
  O      9.11734449     16.99008436     -1.59691019
  O     15.68684695     16.99659036     -1.59685671
  O     -0.10072615      2.20175982     -1.60244580
  O     -0.09579378      5.15240906     -1.67670630
  O     -0.07514011      8.11249668     -1.67802483
  O     -0.07997509     14.03686181     -1.67843142
  O     -0.06251463     11.07923762     -1.67655237
  O     -0.08890155     16.99510939     -1.61109102
  O      6.53071700      2.19032508     -1.67172479
  O     13.06451304      2.19708269     -1.67898259
  O      6.52627547      5.15988572     -1.66892877
  O     13.06317794      5.16288646     -1.67592260
  O      6.53688575      8.12127107     -1.67584601
  O     13.06545909      8.11712948     -1.67680757
  O      6.53388118     14.03021317     -1.67708590
  O     13.11354058     14.03292781     -1.68743175
  O      6.54354296     11.07890128     -1.68159552
  O     13.07787612     11.07697217     -1.68239403
  O      6.51999909     16.98999569     -1.67025951
  O     13.08496487     16.98988190     -1.68200143
  O      4.53786602      0.70758103     -2.98954359
  O      4.54403684      3.67864201     -2.95059834
  O      4.54353763      6.63931244     -2.94590286
  O      4.54931403     12.55001857     -3.00414110
  O      4.54615327      9.59563606     -2.95107735
  O      4.54267882     15.51674688     -2.94921836
  O     11.04506561      0.70543087     -2.94757649
  O     17.62852426      0.71755324     -2.94208397
  O     11.12606359      3.67523189     -2.95208329
  O     17.64228330      3.67077609     -2.95163973
  O     11.04922967      6.64422526     -2.95127756
  O     17.63499851      6.63701585     -2.94918907
  O     11.04627626     12.55632668     -2.94631192
  O     17.63298724     12.55424168     -2.94694517
  O     11.04425365      9.59476593     -2.94705195
  O     17.71067856      9.59785626     -2.94637882
  O     11.11407381     15.51567955     -2.94738607
  O     17.62761844     15.51867240     -2.94770046
  O      1.16730567      0.72032719     -3.64614811
  O      1.24142946      3.67323106     -3.64559693
  O      1.25422791      6.63149921     -3.64836590
  O      1.24573761     12.55074781     -3.65661944
  O      1.24698371      9.58996293     -3.65482874
  O      1.24079256     15.51415465     -3.64850943
  O      7.84755798      0.65822843     -3.65317225
  O     14.42834009      0.70876926     -3.65114366
  O      7.75772666      3.67282632     -3.65992126
  O     14.41503644      3.67239459     -3.65396500
  O      7.84214381      6.64068554     -3.67133771
  O     14.41796467      6.63181367     -3.66446899
  O      7.92675950     12.55284276     -3.66165811
  O     14.51267915     12.55925359     -3.66583031
  O      7.92393007      9.59868971     -3.66747811
  O     14.42720808      9.60368487     -3.66342736
  O      7.85000805     15.50868029     -3.66170648
  O     14.51404225     15.51566398     -3.66595195
  O      5.75671982      2.16324301     -5.01435958
  O      5.75975303      5.15448081     -5.01530183
  O      5.76556015      8.14428322     -5.01539114
  O      5.75653567     14.03557632     -5.01636649
  O      5.78411909     11.08130282     -5.09072135
  O      5.76834411     16.97608362     -5.06744863
  O     12.34626893      2.16631666     -5.01136403
  O     18.92693223      2.16872457     -5.01182269
  O     12.35319463      5.15333855     -5.01211275
  O     18.92479343      5.15702773     -5.01288125
  O     12.38480073      8.10072512     -4.98445473
  O     18.93235633      8.05623231     -5.01259674
  O     12.35286853     14.03080392     -5.00936198
  O     18.92498483     14.03379252     -5.01470270
  O     12.37642473     11.06886562     -4.98555887
  O     18.93427013     11.04978872     -5.01564865
  O     12.37237753     16.98851532     -4.98794386
  O     18.92340113     17.02074082     -5.01352979
  O      3.22044698      2.16860736     -5.01483320
  O      3.22535877      5.15561492     -5.01428870
  O      3.22541749      8.14656077     -5.01556500
  O      3.21913862     14.03265332     -5.01720782
  O      3.22122825     11.05180552     -5.01514675
  O      3.19055941     16.98232112     -4.99293827
  O      9.80662525      2.17046481     -5.01076665
  O     16.39100653      2.17423529     -5.01482192
  O      9.80898175      5.15497252     -5.01507870
  O     16.39253663      5.14959923     -5.01645290
  O      9.91779221      8.13950322     -5.26757440
  O     16.39480123      8.14363750     -5.01513968
  O      9.93210408     14.03336686     -5.19536888
  O     16.50904620     14.03254601     -5.20296988
  O      9.94031990     11.07440600     -5.19705723
  O     16.52457610     11.06721736     -5.19701748
  O      9.89109481     16.97561302     -5.19278317
  O     16.48915131     16.99946280     -5.19553072
  O      1.25088733      0.71851802     -6.18411049
  O      1.24511498      3.66782190     -6.18930110
  O      1.25127594      6.62532430     -6.18717196
  O      1.25087407     12.55127117     -6.19242414
  O      1.24291261      9.58949157     -6.18831295
  O      1.24441005     15.50623474     -6.18118684
  O      7.75313584      0.71934483     -6.18526678
  O     14.41859379      0.72195880     -6.18694327
  O      7.83046563      3.64396538     -6.19141794
  O     14.34234357      3.65447390     -6.19246203
  O      7.75205245      6.62230557     -6.19408800
  O     14.42223371      6.61949175     -6.19834840
  O      7.75339785     12.55076102     -6.19457837
  O     14.33862573     12.56087697     -6.19719842
  O      7.82727799      9.60001139     -6.19093921
  O     14.41597948      9.59571130     -6.19876855
  O      7.75657171     15.49529594     -6.18846092
  O     14.33832771     15.52441085     -6.20041601
 Au      8.01342169      6.85954489      7.70672493
 Au     12.73236853      9.81297530      8.68391620
 Au     10.77423617      6.43284609      7.41167434
 Au     10.67285671     11.69554003      8.29951772
 Au     10.61996908     10.21498127     10.49302781
 Au     13.25211973      7.28575047      7.67335769
 Au      9.74190330      8.88280288      8.25251977
 Au     15.12873476      9.34781224      7.66260091

