#B3LYP/6-31+G(d) OPT FREQ

439, Energy = -13269.73172072 au

0 1
 Ti      1.57517644      0.72217528      4.68169486
 Ti      1.58295915      3.68064443      4.67117593
 Ti      1.60493006      6.63358090      4.66490478
 Ti      1.60582663     12.54121209      4.67700874
 Ti      1.57090297      9.59223243      4.67067593
 Ti      1.60062262     15.49301438      4.67754749
 Ti      7.86588025      0.72731672      4.73228123
 Ti     14.18232381      0.72889572      4.73635405
 Ti      7.89012291      3.68531921      4.74078997
 Ti     14.19727421      3.69155552      4.75928260
 Ti      7.88865060      6.65079935      4.86002054
 Ti     14.18097426      6.63805197      4.74679392
 Ti      7.87609278     12.55696340      4.72512371
 Ti     14.21081244     12.54310075      4.73290042
 Ti      7.87762213      9.61490983      4.73232686
 Ti     14.18817451      9.59139168      4.78888757
 Ti      7.89114325     15.50151250      4.73607795
 Ti     14.23835175     15.49925344      4.73284742
 Ti      4.72036179      2.20160542      5.31486107
 Ti      4.72403239      5.14732315      5.29304731
 Ti      4.71961693      8.11767269      5.31612918
 Ti      4.72093512     14.02116092      5.31979564
 Ti      4.71930363     11.06806849      5.29696045
 Ti      4.72113093     16.96863510      5.29471097
 Ti     11.03496005      2.12949373      5.28753697
 Ti     17.33120898      2.13056011      5.12274975
 Ti     11.04006260      4.93098733      4.84453152
 Ti     17.34291585      5.13175109      5.04211484
 Ti     11.04658875      8.35532244      4.79860877
 Ti     17.33500374      8.10310761      5.10337693
 Ti     11.04840336     14.08094291      5.28089297
 Ti     17.33404446     13.98714656      5.13763548
 Ti     11.03382325     11.19280858      5.28787344
 Ti     17.32952795     11.04659053      5.14320119
 Ti     11.04381289     16.96577283      5.28501514
 Ti     17.32650294     16.91914555      5.13974840
  O      4.73000893      0.71771873      3.75471792
  O      4.72593350      3.69237495      3.75556722
  O      4.72804807      6.62230577      3.75459671
  O      4.66145964     12.53280952      3.75458122
  O      4.72812404      9.59976239      3.75295071
  O      4.66012501     15.50456979      3.75376537
  O     11.03108940      0.71830029      3.76591177
  O     17.25755109      0.72090946      3.66296773
  O     11.02744039      3.61279069      3.67154386
  O     17.26000582      3.69931898      3.60913350
  O     11.02629299      6.62850897      3.76355481
  O     17.26663458      6.61922067      3.60051933
  O     11.02321143     12.52982578      3.76034874
  O     17.18592201     12.52495433      3.65686703
  O     11.03722132      9.68989593      3.66194197
  O     17.26143117      9.60326830      3.62598314
  O     11.02196108     15.51017546      3.75892654
  O     17.18469072     15.51114368      3.66169646
  O      4.72967528      0.72202484      6.38415598
  O      4.72864889      3.68887324      6.38799995
  O      4.73787015      6.62718233      6.38366283
  O      4.72854695      9.59487240      6.38669733
  O      4.72871032     12.53292829      6.38640162
  O      4.72807692     15.50458095      6.38751423
  O     11.03221503      0.70826335      6.39942835
  O     17.40922618      0.71414125      6.23646684
  O     11.02400842      3.70063897      6.24177390
  O     17.33667099      3.68900914      6.22504663
  O     17.33325934      6.61643754      6.17633954
  O     11.03186867     12.60045348      6.39813298
  O     17.41130292     12.52164645      6.23476130
  O     10.96133841      9.59468285      6.23878927
  O     17.39926595      9.54769663      6.22761445
  O     11.03102323     15.51038329      6.39237706
  O     17.41158992     15.45744513      6.23569345
  O      2.76485437      2.20432826      5.12219216
  O      2.76747305      5.13806810      5.12750498
  O      2.76955371      8.11349536      5.12355370
  O      2.75590583     14.01807436      5.19870448
  O      2.76437818     11.03688291      5.12780218
  O      2.76385414     16.99919085      5.12875423
  O      9.06831900      2.19996719      5.12415401
  O     15.36345081      2.20377463      5.12316559
  O      9.12744985      5.18845881      5.10973985
  O     15.35961289      5.18361875      5.03425740
  O      9.12951110      8.11324919      4.96577776
  O     15.36296443      8.11068815      5.03491300
  O      9.07347924     14.02378695      5.12289351
  O     15.35837678     14.01477336      5.20566067
  O      9.06700017     11.09859445      5.12533876
  O     15.36024634     11.04428962      5.19959283
  O      9.07042179     16.99436969      5.12569648
  O     15.36063335     17.00173292      5.20295102
  O      0.38714791      2.20996389      4.96873446
  O      0.39119558      5.17620951      4.96947693
  O      0.39258204      8.10477838      4.96239580
  O      0.38726593     14.01607245      4.88984697
  O      0.39099789     11.09014674      4.96429613
  O      0.39093597     16.94144874      4.96574351
  O      6.68746274      2.21106889      5.12251642
  O     12.98682002      2.20166943      5.11955502
  O      6.69564987      5.12403796      5.12111443
  O     12.92979726      5.19235632      5.04816725
  O      6.69532268      8.17076779      5.12020049
  O     12.92259050      8.10720318      5.04304247
  O      6.68032670     14.02572037      5.11921818
  O     12.98595004     14.02248521      5.04831831
  O      6.68504942     11.09069925      5.12008862
  O     12.97967803     11.10078645      5.12094834
  O      6.68466497     16.94944756      5.12299249
  O     12.99009305     16.94395459      5.11651308
 Ti      1.58348868      2.18679941      1.50575743
 Ti      1.58926570      5.14219664      1.47733748
 Ti      1.59418625      8.11090058      1.47924091
 Ti      1.56369239     14.01683075      1.50119570
 Ti      1.57986500     11.06758699      1.49845209
 Ti      1.57828677     16.96290160      1.50139604
 Ti      7.87612784      2.21591883      1.49609723
 Ti     14.25478444      2.21270755      1.50523774
 Ti      7.87589549      5.17781426      1.55892595
 Ti     14.25405530      5.17504803      1.52094590
 Ti      7.88267592      8.06716096      1.56615469
 Ti     14.26290735      8.11249474      1.52168315
 Ti      7.87395358     14.01227526      1.51201118
 Ti     14.19997475     14.01070916      1.48556011
 Ti      7.87435211     11.03171051      1.48825308
 Ti     14.25400539     11.04697232      1.52143719
 Ti      7.88012167     16.97128231      1.51583557
 Ti     14.21959791     16.97654805      1.51173449
 Ti      4.72879458      0.72182579      1.93099918
 Ti      4.71955581      3.67307684      1.92868369
 Ti      4.72367692      6.62710885      1.93056079
 Ti      4.70303124     12.54221764      1.92638107
 Ti      4.72887831      9.59216600      1.92796443
 Ti      4.70331664     15.49663126      1.91919631
 Ti     11.04321464      0.72322196      1.92612394
 Ti     17.39639229      0.71793093      1.75078633
 Ti     11.07799463      3.65142888      1.60149886
 Ti     17.37755443      3.68081160      1.72977892
 Ti     11.05204039      6.62436908      1.82986958
 Ti     17.40095359      6.63571901      1.73486860
 Ti     11.02850152     12.54647741      1.92628355
 Ti     17.34918738     12.54660486      1.76843889
 Ti     11.09562583      9.61179814      1.61011315
 Ti     17.40603140      9.59452294      1.75420015
 Ti     11.04920866     15.50523534      1.90690325
 Ti     17.33844871     15.49733667      1.75140343
  O      1.65093146      0.71449212      2.89591060
  O      1.65347779      3.69182056      2.88854831
  O      1.65632705      6.61872229      2.88355154
  O      1.65983138     12.53394630      2.88871503
  O      1.65370727      9.59884964      2.88838825
  O      1.65896081     15.50373798      2.88890979
  O      7.87659489      0.71940817      2.95436901
  O     14.25659748      0.72178550      2.95487382
  O      7.88139828      3.69150599      2.95924733
  O     14.25536016      3.68578119      2.96058228
  O      7.87494971      6.61819069      2.97587356
  O     14.25272370      6.62711582      2.94664972
  O      7.87957256     12.53011242      2.94679120
  O     14.26074729     12.52735951      2.95269808
  O      7.87657243      9.60591754      2.95344345
  O     14.25427167      9.60638419      2.96299291
  O      7.87875759     15.50569274      2.95480635
  O     14.26293310     15.50867536      2.95346097
  O      5.96960821      2.20349771      1.68315904
  O      5.96037846      5.14111553      1.67902924
  O      5.96526418      8.10832339      1.68377656
  O      5.95140670     14.01871229      1.68707647
  O      5.96268082     11.08366682      1.68181025
  O      5.95754333     16.95343103      1.68429029
  O     12.29173632      2.20262432      1.69376126
  O     18.63350840      2.20340585      1.83129673
  O     12.28899432      5.13941638      1.75308313
  O     18.64532796      5.13939482      1.76532483
  O     12.29201485      8.11051220      1.75718866
  O     18.65569924      8.11342728      1.82916527
  O     12.28626389     14.01832450      1.76217563
  O     18.61034373     14.02088643      1.83605465
  O     12.28702603     11.08873766      1.69031937
  O     18.62676360     11.09417248      1.83102177
  O     12.28797237     16.98986941      1.76106586
  O     18.61781653     16.94836955      1.83535448
  O      3.47282716      2.20022289      1.68918293
  O      3.47664918      5.14226549      1.68323233
  O      3.47549375      8.11027212      1.68852817
  O      3.46339788     14.01826364      1.68071246
  O      3.47212738     11.04601275      1.68307776
  O      3.46881084     16.99555704      1.68382375
  O      9.78669000      2.20766362      1.68362379
  O     16.14208418      2.20074466      1.52893332
  O      9.80637732      5.14201959      1.68356031
  O     16.14389828      5.17756539      1.52510106
  O      9.81188921      8.11241607      1.68786356
  O     16.14827442      8.11345627      1.52703314
  O      9.78408709     14.02049582      1.68926339
  O     16.11988362     14.01885552      1.53111660
  O      9.78929493     11.03956198      1.67975896
  O     16.14308229     11.04342971      1.52479605
  O      9.78917117     16.98923451      1.69089639
  O     16.13489342     16.99656496      1.53335694
  O      1.42434565      0.71501290      0.31613486
  O      1.43127045      3.64233522      0.31004097
  O      1.42736154      6.62562248      0.31419445
  O      1.43090819     12.54154796      0.30981010
  O      1.42536638      9.60260073      0.31316067
  O      1.42883408     15.50080266      0.31226460
  O      7.87123228      0.72553071      0.38044609
  O     14.17777553      0.72504334      0.39013924
  O      7.87708642      3.69542333      0.38005881
  O     14.18035495      3.69448716      0.38813239
  O      7.87951310      6.62417809      0.38601081
  O     14.17838493      6.63289873      0.38590725
  O      7.87188290     12.53316234      0.37841751
  O     14.18028509     12.53080442      0.38822373
  O      7.87501081      9.54473814      0.38431402
  O     14.17640291      9.58710022      0.38619861
  O      7.86993998     15.50125148      0.38657064
  O     14.17654813     15.50678894      0.38689785
 Ti      1.21202878      0.71942337     -1.75752175
 Ti      1.21975963      3.67805472     -1.74110369
 Ti      1.22111716      6.63676035     -1.75533981
 Ti      1.22849042     12.55412208     -1.76041713
 Ti      1.22816291      9.59460746     -1.76515972
 Ti      1.22709747     15.51555674     -1.75892704
 Ti      7.81592619      0.70815691     -1.75287415
 Ti     14.38158119      0.71494161     -1.74474248
 Ti      7.80441092      3.67854378     -1.75257935
 Ti     14.37667801      3.68492053     -1.74500898
 Ti      7.81736303      6.63892084     -1.77625323
 Ti     14.39331679      6.64344134     -1.77549943
 Ti      7.83696388     12.55658465     -1.73913837
 Ti     14.41282109     12.55049553     -1.76073407
 Ti      7.83299588      9.59648136     -1.75768511
 Ti     14.39561168      9.59560913     -1.76648022
 Ti      7.81589198     15.51260085     -1.75790650
 Ti     14.40934091     15.51010728     -1.75630241
 Ti      4.52199207      2.19050397     -1.59161227
 Ti      4.52373824      5.15426536     -1.55230957
 Ti      4.52843688      8.11879900     -1.54955447
 Ti      4.52242957     14.02788300     -1.58772473
 Ti      4.53079138     11.07968169     -1.59126437
 Ti      4.51358792     17.00203362     -1.57907569
 Ti     11.08823270      2.18916184     -1.58733264
 Ti     17.65604673      2.19783817     -1.55248141
 Ti     11.08432363      5.15913192     -1.58883355
 Ti     17.66893902      5.16127300     -1.56595475
 Ti     11.08575948      8.12733818     -1.56890861
 Ti     17.68745030      8.12028738     -1.56060303
 Ti     11.11629116     14.03082356     -1.56258642
 Ti     17.68818458     14.03100085     -1.55812337
 Ti     11.09881007     11.08605676     -1.56207204
 Ti     17.69462097     11.07650451     -1.55489374
 Ti     11.10410228     16.98111534     -1.56242844
 Ti     17.67622831     16.99175535     -1.55176830
 Ti      1.30369970      2.19477698     -5.04772806
 Ti      1.31326858      5.12839073     -5.06048784
 Ti      1.30359635      8.09782824     -5.06656126
 Ti      1.29820627     14.00489532     -5.04681690
 Ti      1.30725828     11.07251972     -5.06745828
 Ti      1.18973891     16.97985252     -5.06112726
 Ti      7.88664190      2.17917051     -5.02767245
 Ti     14.46226053      2.18925818     -5.03217217
 Ti      7.90023798      5.11224747     -5.08518336
 Ti     14.48015323      5.11228181     -5.08395591
 Ti      7.89220098      8.10050586     -5.10119657
 Ti     14.47471673      8.10258285     -5.09878726
 Ti      7.90136460     14.00015542     -5.07435167
 Ti     14.48080143     14.05402072     -5.10816406
 Ti      7.90055760     11.08069982     -5.06893140
 Ti     14.49247153     11.08398312     -5.09432306
 Ti      7.79144382     16.97928002     -5.08718989
 Ti     14.46501303     16.99934982     -5.08067258
 Ti      4.50271475      0.67853286     -4.94553993
 Ti      4.59738169      3.66118026     -4.86025121
 Ti      4.58795066      6.64821928     -4.84268471
 Ti      4.60536881     12.54970432     -4.94445295
 Ti      4.55390161      9.59821891     -4.86271729
 Ti      4.49358231     15.51842562     -4.83720531
 Ti     11.07892972      0.67118858     -4.85049841
 Ti     17.67039963      0.74986841     -4.84503371
 Ti     11.18252030      3.65473495     -4.85592691
 Ti     17.76770073      3.67433079     -4.85125511
 Ti     11.15972404      6.63934225     -4.84267761
 Ti     17.67063633      6.63780116     -4.84905131
 Ti     11.17112152     12.54017942     -4.85760201
 Ti     17.76086193     12.53997692     -4.85494921
 Ti     11.16798488      9.57195295     -4.84076381
 Ti     17.76496603      9.55830793     -4.84740701
 Ti     11.15998408     15.52326962     -4.85603701
 Ti     17.68720513     15.52292102     -4.85539531
  O      4.50839834      0.71926992     -0.34010255
  O      4.51180337      3.65916205     -0.33721896
  O      4.51887021      6.64521145     -0.32875073
  O      4.51161413     12.54452216     -0.34718719
  O      4.51399177      9.60207771     -0.33527885
  O      4.50858683     15.51999133     -0.34330149
  O     11.09212688      0.71909360     -0.33393099
  O     17.67306178      0.71960864     -0.32624871
  O     11.08613898      3.66660444     -0.33859022
  O     17.67187301      3.67579707     -0.33129425
  O     11.08687446      6.64625509     -0.33282806
  O     17.67882754      6.64937818     -0.33545907
  O     11.09791677     12.54805853     -0.32934449
  O     17.68737917     12.54486418     -0.32962540
  O     11.08851999      9.59698890     -0.33086711
  O     17.68149603      9.59505575     -0.33078478
  O     11.10075215     15.51551655     -0.32912311
  O     17.68061647     15.52098124     -0.32755178
  O      2.52847458      2.19707998     -1.67679718
  O      2.52832193      5.15681189     -1.59992168
  O      2.53206906      8.11526864     -1.59912302
  O      2.53200488     14.03278665     -1.67630701
  O      2.53590867     11.07698556     -1.67230927
  O      2.52677125     17.00029427     -1.67740184
  O      9.11406052      2.19884860     -1.67864147
  O     15.66027481      2.20128230     -1.60682690
  O      9.11371744      5.15178411     -1.67959564
  O     15.68312353      5.15606203     -1.67034020
  O      9.11588751      8.11405535     -1.67463941
  O     15.69644398      8.11745240     -1.67484631
  O      9.12073918     14.04147867     -1.59814875
  O     15.69885201     14.03604208     -1.59316166
  O      9.11817370     11.07935990     -1.59758737
  O     15.69852913     11.07306338     -1.59923402
  O      9.11734449     16.99008436     -1.59691019
  O     15.68684695     16.99659036     -1.59685671
  O     -0.10072615      2.20175982     -1.60244580
  O     -0.09579378      5.15240906     -1.67670630
  O     -0.07514011      8.11249668     -1.67802483
  O     -0.07997509     14.03686181     -1.67843142
  O     -0.06251463     11.07923762     -1.67655237
  O     -0.08890155     16.99510939     -1.61109102
  O      6.53071700      2.19032508     -1.67172479
  O     13.06451304      2.19708269     -1.67898259
  O      6.52627547      5.15988572     -1.66892877
  O     13.06317794      5.16288646     -1.67592260
  O      6.53688575      8.12127107     -1.67584601
  O     13.06545909      8.11712948     -1.67680757
  O      6.53388118     14.03021317     -1.67708590
  O     13.11354058     14.03292781     -1.68743175
  O      6.54354296     11.07890128     -1.68159552
  O     13.07787612     11.07697217     -1.68239403
  O      6.51999909     16.98999569     -1.67025951
  O     13.08496487     16.98988190     -1.68200143
  O      4.53786602      0.70758103     -2.98954359
  O      4.54403684      3.67864201     -2.95059834
  O      4.54353763      6.63931244     -2.94590286
  O      4.54931403     12.55001857     -3.00414110
  O      4.54615327      9.59563606     -2.95107735
  O      4.54267882     15.51674688     -2.94921836
  O     11.04506561      0.70543087     -2.94757649
  O     17.62852426      0.71755324     -2.94208397
  O     11.12606359      3.67523189     -2.95208329
  O     17.64228330      3.67077609     -2.95163973
  O     11.04922967      6.64422526     -2.95127756
  O     17.63499851      6.63701585     -2.94918907
  O     11.04627626     12.55632668     -2.94631192
  O     17.63298724     12.55424168     -2.94694517
  O     11.04425365      9.59476593     -2.94705195
  O     17.71067856      9.59785626     -2.94637882
  O     11.11407381     15.51567955     -2.94738607
  O     17.62761844     15.51867240     -2.94770046
  O      1.16730567      0.72032719     -3.64614811
  O      1.24142946      3.67323106     -3.64559693
  O      1.25422791      6.63149921     -3.64836590
  O      1.24573761     12.55074781     -3.65661944
  O      1.24698371      9.58996293     -3.65482874
  O      1.24079256     15.51415465     -3.64850943
  O      7.84755798      0.65822843     -3.65317225
  O     14.42834009      0.70876926     -3.65114366
  O      7.75772666      3.67282632     -3.65992126
  O     14.41503644      3.67239459     -3.65396500
  O      7.84214381      6.64068554     -3.67133771
  O     14.41796467      6.63181367     -3.66446899
  O      7.92675950     12.55284276     -3.66165811
  O     14.51267915     12.55925359     -3.66583031
  O      7.92393007      9.59868971     -3.66747811
  O     14.42720808      9.60368487     -3.66342736
  O      7.85000805     15.50868029     -3.66170648
  O     14.51404225     15.51566398     -3.66595195
  O      5.75671982      2.16324301     -5.01435958
  O      5.75975303      5.15448081     -5.01530183
  O      5.76556015      8.14428322     -5.01539114
  O      5.75653567     14.03557632     -5.01636649
  O      5.78411909     11.08130282     -5.09072135
  O      5.76834411     16.97608362     -5.06744863
  O     12.34626893      2.16631666     -5.01136403
  O     18.92693223      2.16872457     -5.01182269
  O     12.35319463      5.15333855     -5.01211275
  O     18.92479343      5.15702773     -5.01288125
  O     12.38480073      8.10072512     -4.98445473
  O     18.93235633      8.05623231     -5.01259674
  O     12.35286853     14.03080392     -5.00936198
  O     18.92498483     14.03379252     -5.01470270
  O     12.37642473     11.06886562     -4.98555887
  O     18.93427013     11.04978872     -5.01564865
  O     12.37237753     16.98851532     -4.98794386
  O     18.92340113     17.02074082     -5.01352979
  O      3.22044698      2.16860736     -5.01483320
  O      3.22535877      5.15561492     -5.01428870
  O      3.22541749      8.14656077     -5.01556500
  O      3.21913862     14.03265332     -5.01720782
  O      3.22122825     11.05180552     -5.01514675
  O      3.19055941     16.98232112     -4.99293827
  O      9.80662525      2.17046481     -5.01076665
  O     16.39100653      2.17423529     -5.01482192
  O      9.80898175      5.15497252     -5.01507870
  O     16.39253663      5.14959923     -5.01645290
  O      9.91779221      8.13950322     -5.26757440
  O     16.39480123      8.14363750     -5.01513968
  O      9.93210408     14.03336686     -5.19536888
  O     16.50904620     14.03254601     -5.20296988
  O      9.94031990     11.07440600     -5.19705723
  O     16.52457610     11.06721736     -5.19701748
  O      9.89109481     16.97561302     -5.19278317
  O     16.48915131     16.99946280     -5.19553072
  O      1.25088733      0.71851802     -6.18411049
  O      1.24511498      3.66782190     -6.18930110
  O      1.25127594      6.62532430     -6.18717196
  O      1.25087407     12.55127117     -6.19242414
  O      1.24291261      9.58949157     -6.18831295
  O      1.24441005     15.50623474     -6.18118684
  O      7.75313584      0.71934483     -6.18526678
  O     14.41859379      0.72195880     -6.18694327
  O      7.83046563      3.64396538     -6.19141794
  O     14.34234357      3.65447390     -6.19246203
  O      7.75205245      6.62230557     -6.19408800
  O     14.42223371      6.61949175     -6.19834840
  O      7.75339785     12.55076102     -6.19457837
  O     14.33862573     12.56087697     -6.19719842
  O      7.82727799      9.60001139     -6.19093921
  O     14.41597948      9.59571130     -6.19876855
  O      7.75657171     15.49529594     -6.18846092
  O     14.33832771     15.52441085     -6.20041601
 Au     12.55557744      7.52566400      8.04475387
 Au      7.76390798      6.62167405      7.66151387
 Au     14.57151536      9.30768937      7.74581332
 Au     10.47276240      5.65056929      7.89338603
 Au     13.04201569      4.78830318      8.17329134
 Au      9.88465202      8.28410994      7.77180817
 Au     15.18810665      6.65203144      7.81465698
 Au     15.52763034      3.94156974      7.77203748

