#B3LYP/6-31+G(d) OPT FREQ

439, Energy = -13269.72596924 au

0 1
 Ti      1.57237930      0.72579834      4.67673367
 Ti      1.57211520      3.68510414      4.67854237
 Ti      1.59165031      6.63104636      4.67405992
 Ti      1.59834829     12.54333287      4.67963094
 Ti      1.57103330      9.58975199      4.67003330
 Ti      1.60338603     15.49717509      4.67688525
 Ti      7.86543652      0.72328870      4.73360678
 Ti     14.19138070      0.72439805      4.74339751
 Ti      7.87522379      3.67335931      4.72628986
 Ti     14.19183277      3.67271667      4.74405866
 Ti      7.92014792      6.63495323      4.80002678
 Ti     14.21315267      6.62769962      4.74572722
 Ti      7.87299647     12.54328709      4.73886524
 Ti     14.22703169     12.54177386      4.72961074
 Ti      7.89228506      9.59149414      4.78375324
 Ti     14.16319058      9.59480908      4.80657583
 Ti      7.89276636     15.49692226      4.73499233
 Ti     14.22765478     15.49712526      4.73348149
 Ti      4.71476847      2.18748134      5.31400250
 Ti      4.72405027      5.12853743      5.28911464
 Ti      4.72155484      8.07187238      5.28226222
 Ti      4.72232991     14.00942224      5.31350008
 Ti      4.72262677     11.04290388      5.30820489
 Ti      4.72062851     16.95734628      5.29360675
 Ti     11.02749629      2.16890404      5.32102874
 Ti     17.32389692      2.19372002      5.16357330
 Ti     11.05023994      4.95958722      4.73943832
 Ti     17.30700647      5.14624473      5.14383856
 Ti     11.03623389      8.35917483      4.80631971
 Ti     17.32395672      8.10918361      5.16503153
 Ti     11.04563535     14.08076908      5.28772882
 Ti     17.33501173     14.02560995      5.15419402
 Ti     11.02685558     11.19183352      5.24864643
 Ti     17.32990521     11.07433056      5.13574482
 Ti     11.04211420     16.97905141      5.28474215
 Ti     17.32823772     16.96867637      5.13269794
  O      4.72903655      0.71852434      3.75490672
  O      4.72567572      3.69511527      3.75334532
  O      4.72523811      6.62100469      3.75308900
  O      4.72396540     12.52919260      3.76070765
  O      4.72260856      9.60260034      3.74965725
  O      4.66113835     15.50348674      3.75354738
  O     11.03014274      0.71947025      3.77229909
  O     17.25556625      0.72062871      3.65687978
  O     11.03178095      3.55097637      3.66801707
  O     17.18846060      3.69798591      3.65608508
  O     10.95927460      6.62514768      3.74489623
  O     17.19034319      6.62388237      3.65475291
  O     10.96055096     12.53349080      3.75382527
  O     17.18517086     12.52776505      3.65134599
  O     11.02541791      9.68087052      3.61623698
  O     17.25657861      9.59689713      3.64906639
  O     11.02228183     15.51082400      3.75839126
  O     17.18581361     15.50642893      3.65428719
  O      4.72902572      0.71695619      6.38523486
  O      4.72935742      3.68294065      6.38785728
  O      4.73572572      6.61973170      6.37909548
  O      4.80887898      9.54371678      6.39482873
  O      4.73084346     12.52156937      6.38629165
  O      4.72925691     15.49681790      6.38441404
  O     11.03160105      0.71573211      6.40182115
  O     17.41123732      0.71917557      6.23695587
  O     11.02609211      3.76792542      6.24338016
  O     17.41170509      3.68991592      6.23629960
  O     17.34499782      6.62724817      6.23612907
  O     11.03712739     12.59641000      6.39438315
  O     17.41058288     12.53486570      6.23374148
  O     11.03483876      9.59237697      6.14751329
  O     17.40204147      9.59596871      6.23924134
  O     11.03048378     15.51317660      6.39166714
  O     17.41202103     15.49930952      6.23442317
  O      2.76447807      2.20542108      5.12221028
  O      2.76628507      5.13770824      5.12800309
  O      2.77150033      8.11489368      5.12547871
  O      2.75869083     14.01562440      5.19707650
  O      2.77360201     11.03410548      5.13195550
  O      2.76532830     16.99909864      5.12839087
  O      9.06823919      2.19825400      5.12654988
  O     15.35341827      2.20423825      5.19643528
  O      9.12277723      5.12758341      5.04057244
  O     15.29840953      5.12885609      5.27676011
  O      9.13165576      8.10234995      5.11164276
  O     15.34102364      8.11056428      5.19123704
  O      9.06952278     14.02015932      5.12563984
  O     15.35965456     14.01990450      5.20602252
  O      9.06141611     11.09835881      5.18861980
  O     15.35525226     11.03903041      5.19691263
  O      9.07034435     16.99298421      5.12660293
  O     15.35788481     17.00002730      5.20128435
  O      0.38754281      2.20774753      4.96355977
  O      0.38292812      5.18273475      4.96483278
  O      0.38818661      8.10657458      4.96518517
  O      0.38726131     14.01785590      4.89140580
  O      0.39463912     11.09083069      4.96428083
  O      0.39379518     16.94235707      4.96298329
  O      6.68290545      2.20299278      5.12358360
  O     12.98016334      2.20370708      5.12168409
  O      6.69834607      5.12879874      5.12495733
  O     12.92473486      5.19299553      5.04094270
  O      6.69144813      8.10865838      5.03242378
  O     12.92000989      8.04016976      5.03618118
  O      6.68381302     14.02111989      5.12315279
  O     12.98482759     14.01855980      5.04564220
  O      6.68543426     11.04582461      5.12024450
  O     12.97184070     11.10652912      5.04498754
  O      6.68518657     16.94675510      5.12303870
  O     12.98885751     16.94844256      5.11745685
 Ti      1.57637504      2.20198011      1.49566956
 Ti      1.57679576      5.15781262      1.50583672
 Ti      1.59153332      8.11393119      1.47425625
 Ti      1.56455591     14.02162849      1.49975747
 Ti      1.57910625     11.07404667      1.50012434
 Ti      1.57545408     16.96984813      1.50246858
 Ti      7.86968991      2.21609818      1.49991158
 Ti     14.25369412      2.20440844      1.50092495
 Ti      7.87229044      5.17763340      1.52905602
 Ti     14.24644762      5.17464696      1.50957105
 Ti      7.87747193      8.10452751      1.54726333
 Ti     14.26386566      8.12206806      1.52412730
 Ti      7.87775956     14.01605286      1.50601862
 Ti     14.20185798     14.01086024      1.48334617
 Ti      7.87574410     11.04451014      1.52420031
 Ti     14.25542924     11.05223258      1.52571220
 Ti      7.88160709     16.97401803      1.51661369
 Ti     14.22680085     16.97202677      1.51532371
 Ti      4.72696723      0.72408487      1.93018368
 Ti      4.70644350      3.68141279      1.92368163
 Ti      4.72657726      6.63510941      1.92256001
 Ti      4.71898517     12.55092054      1.93019668
 Ti      4.71853994      9.60291268      1.92727224
 Ti      4.70245902     15.50025978      1.91551671
 Ti     11.04491936      0.72000309      1.94097068
 Ti     17.39649734      0.71917484      1.76514205
 Ti     11.06994362      3.63892749      1.59860087
 Ti     17.35725862      3.68449192      1.76931826
 Ti     11.04181435      6.62956042      1.77310259
 Ti     17.38934985      6.63648351      1.77869813
 Ti     11.02404877     12.55162540      1.91765221
 Ti     17.34914596     12.54982104      1.76878697
 Ti     11.09667889      9.61787067      1.62047923
 Ti     17.40477880      9.59555567      1.77646307
 Ti     11.05219787     15.50758313      1.91067610
 Ti     17.33921582     15.49698747      1.75986618
  O      1.65074373      0.71949546      2.89106595
  O      1.65543209      3.69172391      2.89174491
  O      1.65556289      6.62617547      2.88979288
  O      1.65891071     12.53664140      2.89253188
  O      1.65477190      9.60016815      2.88812857
  O      1.65958955     15.50471315      2.88885678
  O      7.87627493      0.72051206      2.95414692
  O     14.25794369      0.72695836      2.95828430
  O      7.87696367      3.68711943      2.94654590
  O     14.26004084      3.69221707      2.95967300
  O      7.88089464      6.61882277      2.96417814
  O     14.26328927      6.62016812      2.95741609
  O      7.88049701     12.52824134      2.95744230
  O     14.26353874     12.52915770      2.94910202
  O      7.88368154      9.60143767      2.96884831
  O     14.25526340      9.59598478      2.97309214
  O      7.87915631     15.50588089      2.95473206
  O     14.26245620     15.50842854      2.95353616
  O      5.96226553      2.20788497      1.68253104
  O      5.95694123      5.14388972      1.67840251
  O      5.96453441      8.11495099      1.68344272
  O      5.96106564     14.02442820      1.68561863
  O      5.95964900     11.07969181      1.68126055
  O      5.95670285     16.95823070      1.68478648
  O     12.29217903      2.20207590      1.69100587
  O     18.62658616      2.21272891      1.83525177
  O     12.28416832      5.14050420      1.75794870
  O     18.62042152      5.14418636      1.83422589
  O     12.28953056      8.10381664      1.75684948
  O     18.64936254      8.10884208      1.83617070
  O     12.28620888     14.01743487      1.76335779
  O     18.61157683     14.02010937      1.83550802
  O     12.28842601     11.09237311      1.69083764
  O     18.62596708     11.09257069      1.83323204
  O     12.28909879     16.99195399      1.76216962
  O     18.61998422     16.94873034      1.83464620
  O      3.46875545      2.20349257      1.68714331
  O      3.47238284      5.17593402      1.68425073
  O      3.47325409      8.11294414      1.68728432
  O      3.46627288     14.01825076      1.68264392
  O      3.47231329     11.08521446      1.68499140
  O      3.46911103     16.99596962      1.68423246
  O      9.78353944      2.20603222      1.68125989
  O     16.13850679      2.20170133      1.53051784
  O      9.79584512      5.13305920      1.68083007
  O     16.13956634      5.18050768      1.52543769
  O      9.79707852      8.11102249      1.67972132
  O     16.14615912      8.11424436      1.52945911
  O      9.78405305     14.02300505      1.68711639
  O     16.11622667     14.01871315      1.52984862
  O      9.79060650     11.04311245      1.67535019
  O     16.14214984     11.04035019      1.52640025
  O      9.78880633     16.99047448      1.69194073
  O     16.13369079     16.99647701      1.53280339
  O      1.42401325      0.72076084      0.31635702
  O      1.42652536      3.68528503      0.31644408
  O      1.42283573      6.62400401      0.31847709
  O      1.43000478     12.54341563      0.31052996
  O      1.42551209      9.60419438      0.31498358
  O      1.42990431     15.50254764      0.31313277
  O      7.86999676      0.72672380      0.38112662
  O     14.17796966      0.72366575      0.39043595
  O      7.87539900      3.69268109      0.36693286
  O     14.17941189      3.69458938      0.38716372
  O      7.87767902      6.63147197      0.37996573
  O     14.17705924      6.63546000      0.38799484
  O      7.87257090     12.53146261      0.38589081
  O     14.18028852     12.52889169      0.38806543
  O      7.87367912      9.57956954      0.38400792
  O     14.17569938      9.58674589      0.38916023
  O      7.87048397     15.50383574      0.38563401
  O     14.17569407     15.50768971      0.38680872
 Ti      1.21202878      0.71942337     -1.75752175
 Ti      1.21975963      3.67805472     -1.74110369
 Ti      1.22111716      6.63676035     -1.75533981
 Ti      1.22849042     12.55412208     -1.76041713
 Ti      1.22816291      9.59460746     -1.76515972
 Ti      1.22709747     15.51555674     -1.75892704
 Ti      7.81592619      0.70815691     -1.75287415
 Ti     14.38158119      0.71494161     -1.74474248
 Ti      7.80441092      3.67854378     -1.75257935
 Ti     14.37667801      3.68492053     -1.74500898
 Ti      7.81736303      6.63892084     -1.77625323
 Ti     14.39331679      6.64344134     -1.77549943
 Ti      7.83696388     12.55658465     -1.73913837
 Ti     14.41282109     12.55049553     -1.76073407
 Ti      7.83299588      9.59648136     -1.75768511
 Ti     14.39561168      9.59560913     -1.76648022
 Ti      7.81589198     15.51260085     -1.75790650
 Ti     14.40934091     15.51010728     -1.75630241
 Ti      4.52199207      2.19050397     -1.59161227
 Ti      4.52373824      5.15426536     -1.55230957
 Ti      4.52843688      8.11879900     -1.54955447
 Ti      4.52242957     14.02788300     -1.58772473
 Ti      4.53079138     11.07968169     -1.59126437
 Ti      4.51358792     17.00203362     -1.57907569
 Ti     11.08823270      2.18916184     -1.58733264
 Ti     17.65604673      2.19783817     -1.55248141
 Ti     11.08432363      5.15913192     -1.58883355
 Ti     17.66893902      5.16127300     -1.56595475
 Ti     11.08575948      8.12733818     -1.56890861
 Ti     17.68745030      8.12028738     -1.56060303
 Ti     11.11629116     14.03082356     -1.56258642
 Ti     17.68818458     14.03100085     -1.55812337
 Ti     11.09881007     11.08605676     -1.56207204
 Ti     17.69462097     11.07650451     -1.55489374
 Ti     11.10410228     16.98111534     -1.56242844
 Ti     17.67622831     16.99175535     -1.55176830
 Ti      1.30369970      2.19477698     -5.04772806
 Ti      1.31326858      5.12839073     -5.06048784
 Ti      1.30359635      8.09782824     -5.06656126
 Ti      1.29820627     14.00489532     -5.04681690
 Ti      1.30725828     11.07251972     -5.06745828
 Ti      1.18973891     16.97985252     -5.06112726
 Ti      7.88664190      2.17917051     -5.02767245
 Ti     14.46226053      2.18925818     -5.03217217
 Ti      7.90023798      5.11224747     -5.08518336
 Ti     14.48015323      5.11228181     -5.08395591
 Ti      7.89220098      8.10050586     -5.10119657
 Ti     14.47471673      8.10258285     -5.09878726
 Ti      7.90136460     14.00015542     -5.07435167
 Ti     14.48080143     14.05402072     -5.10816406
 Ti      7.90055760     11.08069982     -5.06893140
 Ti     14.49247153     11.08398312     -5.09432306
 Ti      7.79144382     16.97928002     -5.08718989
 Ti     14.46501303     16.99934982     -5.08067258
 Ti      4.50271475      0.67853286     -4.94553993
 Ti      4.59738169      3.66118026     -4.86025121
 Ti      4.58795066      6.64821928     -4.84268471
 Ti      4.60536881     12.54970432     -4.94445295
 Ti      4.55390161      9.59821891     -4.86271729
 Ti      4.49358231     15.51842562     -4.83720531
 Ti     11.07892972      0.67118858     -4.85049841
 Ti     17.67039963      0.74986841     -4.84503371
 Ti     11.18252030      3.65473495     -4.85592691
 Ti     17.76770073      3.67433079     -4.85125511
 Ti     11.15972404      6.63934225     -4.84267761
 Ti     17.67063633      6.63780116     -4.84905131
 Ti     11.17112152     12.54017942     -4.85760201
 Ti     17.76086193     12.53997692     -4.85494921
 Ti     11.16798488      9.57195295     -4.84076381
 Ti     17.76496603      9.55830793     -4.84740701
 Ti     11.15998408     15.52326962     -4.85603701
 Ti     17.68720513     15.52292102     -4.85539531
  O      4.50839834      0.71926992     -0.34010255
  O      4.51180337      3.65916205     -0.33721896
  O      4.51887021      6.64521145     -0.32875073
  O      4.51161413     12.54452216     -0.34718719
  O      4.51399177      9.60207771     -0.33527885
  O      4.50858683     15.51999133     -0.34330149
  O     11.09212688      0.71909360     -0.33393099
  O     17.67306178      0.71960864     -0.32624871
  O     11.08613898      3.66660444     -0.33859022
  O     17.67187301      3.67579707     -0.33129425
  O     11.08687446      6.64625509     -0.33282806
  O     17.67882754      6.64937818     -0.33545907
  O     11.09791677     12.54805853     -0.32934449
  O     17.68737917     12.54486418     -0.32962540
  O     11.08851999      9.59698890     -0.33086711
  O     17.68149603      9.59505575     -0.33078478
  O     11.10075215     15.51551655     -0.32912311
  O     17.68061647     15.52098124     -0.32755178
  O      2.52847458      2.19707998     -1.67679718
  O      2.52832193      5.15681189     -1.59992168
  O      2.53206906      8.11526864     -1.59912302
  O      2.53200488     14.03278665     -1.67630701
  O      2.53590867     11.07698556     -1.67230927
  O      2.52677125     17.00029427     -1.67740184
  O      9.11406052      2.19884860     -1.67864147
  O     15.66027481      2.20128230     -1.60682690
  O      9.11371744      5.15178411     -1.67959564
  O     15.68312353      5.15606203     -1.67034020
  O      9.11588751      8.11405535     -1.67463941
  O     15.69644398      8.11745240     -1.67484631
  O      9.12073918     14.04147867     -1.59814875
  O     15.69885201     14.03604208     -1.59316166
  O      9.11817370     11.07935990     -1.59758737
  O     15.69852913     11.07306338     -1.59923402
  O      9.11734449     16.99008436     -1.59691019
  O     15.68684695     16.99659036     -1.59685671
  O     -0.10072615      2.20175982     -1.60244580
  O     -0.09579378      5.15240906     -1.67670630
  O     -0.07514011      8.11249668     -1.67802483
  O     -0.07997509     14.03686181     -1.67843142
  O     -0.06251463     11.07923762     -1.67655237
  O     -0.08890155     16.99510939     -1.61109102
  O      6.53071700      2.19032508     -1.67172479
  O     13.06451304      2.19708269     -1.67898259
  O      6.52627547      5.15988572     -1.66892877
  O     13.06317794      5.16288646     -1.67592260
  O      6.53688575      8.12127107     -1.67584601
  O     13.06545909      8.11712948     -1.67680757
  O      6.53388118     14.03021317     -1.67708590
  O     13.11354058     14.03292781     -1.68743175
  O      6.54354296     11.07890128     -1.68159552
  O     13.07787612     11.07697217     -1.68239403
  O      6.51999909     16.98999569     -1.67025951
  O     13.08496487     16.98988190     -1.68200143
  O      4.53786602      0.70758103     -2.98954359
  O      4.54403684      3.67864201     -2.95059834
  O      4.54353763      6.63931244     -2.94590286
  O      4.54931403     12.55001857     -3.00414110
  O      4.54615327      9.59563606     -2.95107735
  O      4.54267882     15.51674688     -2.94921836
  O     11.04506561      0.70543087     -2.94757649
  O     17.62852426      0.71755324     -2.94208397
  O     11.12606359      3.67523189     -2.95208329
  O     17.64228330      3.67077609     -2.95163973
  O     11.04922967      6.64422526     -2.95127756
  O     17.63499851      6.63701585     -2.94918907
  O     11.04627626     12.55632668     -2.94631192
  O     17.63298724     12.55424168     -2.94694517
  O     11.04425365      9.59476593     -2.94705195
  O     17.71067856      9.59785626     -2.94637882
  O     11.11407381     15.51567955     -2.94738607
  O     17.62761844     15.51867240     -2.94770046
  O      1.16730567      0.72032719     -3.64614811
  O      1.24142946      3.67323106     -3.64559693
  O      1.25422791      6.63149921     -3.64836590
  O      1.24573761     12.55074781     -3.65661944
  O      1.24698371      9.58996293     -3.65482874
  O      1.24079256     15.51415465     -3.64850943
  O      7.84755798      0.65822843     -3.65317225
  O     14.42834009      0.70876926     -3.65114366
  O      7.75772666      3.67282632     -3.65992126
  O     14.41503644      3.67239459     -3.65396500
  O      7.84214381      6.64068554     -3.67133771
  O     14.41796467      6.63181367     -3.66446899
  O      7.92675950     12.55284276     -3.66165811
  O     14.51267915     12.55925359     -3.66583031
  O      7.92393007      9.59868971     -3.66747811
  O     14.42720808      9.60368487     -3.66342736
  O      7.85000805     15.50868029     -3.66170648
  O     14.51404225     15.51566398     -3.66595195
  O      5.75671982      2.16324301     -5.01435958
  O      5.75975303      5.15448081     -5.01530183
  O      5.76556015      8.14428322     -5.01539114
  O      5.75653567     14.03557632     -5.01636649
  O      5.78411909     11.08130282     -5.09072135
  O      5.76834411     16.97608362     -5.06744863
  O     12.34626893      2.16631666     -5.01136403
  O     18.92693223      2.16872457     -5.01182269
  O     12.35319463      5.15333855     -5.01211275
  O     18.92479343      5.15702773     -5.01288125
  O     12.38480073      8.10072512     -4.98445473
  O     18.93235633      8.05623231     -5.01259674
  O     12.35286853     14.03080392     -5.00936198
  O     18.92498483     14.03379252     -5.01470270
  O     12.37642473     11.06886562     -4.98555887
  O     18.93427013     11.04978872     -5.01564865
  O     12.37237753     16.98851532     -4.98794386
  O     18.92340113     17.02074082     -5.01352979
  O      3.22044698      2.16860736     -5.01483320
  O      3.22535877      5.15561492     -5.01428870
  O      3.22541749      8.14656077     -5.01556500
  O      3.21913862     14.03265332     -5.01720782
  O      3.22122825     11.05180552     -5.01514675
  O      3.19055941     16.98232112     -4.99293827
  O      9.80662525      2.17046481     -5.01076665
  O     16.39100653      2.17423529     -5.01482192
  O      9.80898175      5.15497252     -5.01507870
  O     16.39253663      5.14959923     -5.01645290
  O      9.91779221      8.13950322     -5.26757440
  O     16.39480123      8.14363750     -5.01513968
  O      9.93210408     14.03336686     -5.19536888
  O     16.50904620     14.03254601     -5.20296988
  O      9.94031990     11.07440600     -5.19705723
  O     16.52457610     11.06721736     -5.19701748
  O      9.89109481     16.97561302     -5.19278317
  O     16.48915131     16.99946280     -5.19553072
  O      1.25088733      0.71851802     -6.18411049
  O      1.24511498      3.66782190     -6.18930110
  O      1.25127594      6.62532430     -6.18717196
  O      1.25087407     12.55127117     -6.19242414
  O      1.24291261      9.58949157     -6.18831295
  O      1.24441005     15.50623474     -6.18118684
  O      7.75313584      0.71934483     -6.18526678
  O     14.41859379      0.72195880     -6.18694327
  O      7.83046563      3.64396538     -6.19141794
  O     14.34234357      3.65447390     -6.19246203
  O      7.75205245      6.62230557     -6.19408800
  O     14.42223371      6.61949175     -6.19834840
  O      7.75339785     12.55076102     -6.19457837
  O     14.33862573     12.56087697     -6.19719842
  O      7.82727799      9.60001139     -6.19093921
  O     14.41597948      9.59571130     -6.19876855
  O      7.75657171     15.49529594     -6.18846092
  O     14.33832771     15.52441085     -6.20041601
 Au      9.28915172     10.88594687      8.57138447
 Au      7.27037140      9.16273549      7.78906047
 Au     12.57332773      7.50020829      7.96823904
 Au     10.61560936      5.70613790      7.52090372
 Au      7.71968815      6.44428733      7.65075531
 Au     14.44338421      9.48513920      7.74219338
 Au     11.93552187     10.11549083      8.61704525
 Au      9.80531033      8.16894867      8.28954148

