#B3LYP/6-31+G(d) OPT FREQ

439, Energy = -13269.71527956 au

0 1
 Ti      1.56466625      0.72255919      4.68157362
 Ti      1.60693499      3.68131863      4.67074149
 Ti      1.57734426      6.63285323      4.66724901
 Ti      1.59940071     12.54127562      4.67683705
 Ti      1.57548730      9.59197021      4.67161114
 Ti      1.60751765     15.49462328      4.67767476
 Ti      7.86227155      0.72373221      4.73675566
 Ti     14.18657020      0.72484712      4.73271929
 Ti      7.87642722      3.69194058      4.74481538
 Ti     14.19913441      3.66231420      4.74066839
 Ti      7.88513706      6.64642015      4.73738161
 Ti     14.18063613      6.61620358      4.82993280
 Ti      7.88140855     12.55407702      4.73532279
 Ti     14.22471167     12.53552340      4.72639918
 Ti      7.87211849      9.60747414      4.74107702
 Ti     14.18823029      9.58632904      4.72955129
 Ti      7.89438501     15.49908047      4.73754625
 Ti     14.23221615     15.49645201      4.73488957
 Ti      4.71830092      2.20509562      5.31939757
 Ti      4.72312293      5.16184387      5.29805432
 Ti      4.71621027      8.11547642      5.31517683
 Ti      4.72073261     14.02095038      5.32006814
 Ti      4.71673425     11.06758911      5.29758570
 Ti      4.71869329     16.97018315      5.29554419
 Ti     11.01787414      2.11216540      5.25882246
 Ti     17.32841231      2.13839120      5.12849084
 Ti     11.01888461      4.97113669      4.85416957
 Ti     17.33848616      5.14015229      5.03471801
 Ti     11.03229196      8.34640089      4.93961514
 Ti     17.32801356      8.17909663      5.03606840
 Ti     11.05750080     14.05497602      5.28571375
 Ti     17.33404043     14.02703476      5.14918358
 Ti     11.04424486     11.16300597      5.28054411
 Ti     17.32301522     11.10083656      5.12132476
 Ti     11.04757461     16.94809575      5.28669286
 Ti     17.32150657     16.94450035      5.12599741
  O      4.73035044      0.71768811      3.75479262
  O      4.72631832      3.69404347      3.75624086
  O      4.72695905      6.62348917      3.75101039
  O      4.66159978     12.53301472      3.75457206
  O      4.72907942      9.59941040      3.75263512
  O      4.65998636     15.50449202      3.75353554
  O     11.02649831      0.71559473      3.76109535
  O     17.25520447      0.72585734      3.66565553
  O     10.94384405      3.62574061      3.67442986
  O     17.25688437      3.69558537      3.61656663
  O     10.95068470      6.62112539      3.75571149
  O     17.25820743      6.61226284      3.59973972
  O     11.02447323     12.53138833      3.75695673
  O     17.18565702     12.52594739      3.65461022
  O     11.01632856      9.66673983      3.67950698
  O     17.25774925      9.54581513      3.60821334
  O     11.02166453     15.51238528      3.75748751
  O     17.18630352     15.50816153      3.66387166
  O      4.73026355      0.72207416      6.38541909
  O      4.72783145      3.69175493      6.38662538
  O      4.72916644      6.63111981      6.38514179
  O      4.72926047      9.59525735      6.38575252
  O      4.72909430     12.53326376      6.38644925
  O      4.72797407     15.50501175      6.38727554
  O     11.03215666      0.71001150      6.39218712
  O     17.41258238      0.71821009      6.23693544
  O     11.10720091      3.69314527      6.25471409
  O     17.32782711      3.69458672      6.24133983
  O     17.40956058      6.62293201      6.16719348
  O     11.03256810     12.59555086      6.39336821
  O     17.41184249     12.53441458      6.23434170
  O     11.03251258      9.60207477      6.24799415
  O     17.40993555      9.58696238      6.17576001
  O     11.03067519     15.50584266      6.39152408
  O     17.41248070     15.49577664      6.23843759
  O      2.76742186      2.20128637      5.12401051
  O      2.76647869      5.18021049      5.12626116
  O      2.76539421      8.11102656      5.12056718
  O      2.75592443     14.01811690      5.19859629
  O      2.76449762     11.03786413      5.12815589
  O      2.76404754     17.00073030      5.12876073
  O      9.06394898      2.20496038      5.12756291
  O     15.35546745      2.19017100      5.18822371
  O      9.07751283      5.18558511      5.19818848
  O     15.35337914      5.13890264      5.11623089
  O      9.07934281      8.11303127      5.12763182
  O     15.35331209      8.11673407      5.12339655
  O      9.07280285     14.02258538      5.12255390
  O     15.36199314     14.01726589      5.20542077
  O      9.06636929     11.09229197      5.12649611
  O     15.35985800     11.03545944      5.19640929
  O      9.06900000     16.99629562      5.12561735
  O     15.36063850     16.99499881      5.20268667
  O      0.38801341      2.21422694      4.96907569
  O      0.39111847      5.12993459      4.96629900
  O      0.39187760      8.10821940      4.96295347
  O      0.38590748     14.01850548      4.89094482
  O      0.39202656     11.09268056      4.96058924
  O      0.39184094     16.94135875      4.96408715
  O      6.68612606      2.21345932      5.12390577
  O     12.95866842      2.18570152      5.03163489
  O      6.69136100      5.18011553      5.12412756
  O     12.92539563      5.12858815      4.87783916
  O      6.69090127      8.11560471      5.12401270
  O     12.92694715      8.11858924      4.95869761
  O      6.68133365     14.02424709      5.11965248
  O     12.98905087     14.02057101      5.04729185
  O      6.68437740     11.08537213      5.12192508
  O     12.99122486     11.09768940      5.11667279
  O      6.68484510     16.95007492      5.12283102
  O     12.98991265     16.94338902      5.11733868
 Ti      1.58865830      2.18828895      1.50352779
 Ti      1.58863695      5.14387129      1.47984715
 Ti      1.59154349      8.10986167      1.48382083
 Ti      1.56405017     14.01753696      1.50040048
 Ti      1.57925751     11.06752476      1.50118439
 Ti      1.57856899     16.96440253      1.50264792
 Ti      7.87854110      2.20478771      1.51047490
 Ti     14.25237227      2.21778435      1.48095146
 Ti      7.87670337      5.16048726      1.51315309
 Ti     14.24995221      5.17316689      1.56334464
 Ti      7.87990635      8.11073344      1.50597195
 Ti     14.25500962      8.06448045      1.54007301
 Ti      7.87547590     14.02238529      1.51140703
 Ti     14.19855078     14.01134110      1.49752228
 Ti      7.87804247     11.06819520      1.52063406
 Ti     14.24430860     11.03113917      1.47480449
 Ti      7.88218850     16.97182644      1.51622399
 Ti     14.21703628     16.97757999      1.51461354
 Ti      4.72901672      0.72149629      1.93246008
 Ti      4.72204147      3.67483738      1.93015265
 Ti      4.72076907      6.62781017      1.93043507
 Ti      4.70204946     12.54274801      1.92679983
 Ti      4.72905184      9.59296320      1.92796675
 Ti      4.70461487     15.49691944      1.91938979
 Ti     11.04760894      0.72395582      1.91954496
 Ti     17.39324040      0.71782392      1.74071191
 Ti     11.07083801      3.65527190      1.61943812
 Ti     17.38650532      3.66969648      1.73129378
 Ti     11.04041173      6.62790367      1.84539511
 Ti     17.38798634      6.62538250      1.72450307
 Ti     11.03255473     12.54617235      1.92450294
 Ti     17.34631237     12.54575837      1.76314890
 Ti     11.08869060      9.60646006      1.67707410
 Ti     17.40541530      9.58893022      1.69191262
 Ti     11.04676702     15.50502679      1.91083973
 Ti     17.33997490     15.49730629      1.74786368
  O      1.65167995      0.71436669      2.89603952
  O      1.65597521      3.69171272      2.88715853
  O      1.65426552      6.61877628      2.88397841
  O      1.65871479     12.53337273      2.88791613
  O      1.65232539      9.59819189      2.88765880
  O      1.65907712     15.50292655      2.88867018
  O      7.87603884      0.72014347      2.95570069
  O     14.26120570      0.71666781      2.95291919
  O      7.87950346      3.69679739      2.96160149
  O     14.26576321      3.63118317      2.94720064
  O      7.88171445      6.62302414      2.95310554
  O     14.26227275      6.62108897      2.95650645
  O      7.87916631     12.53253222      2.95120038
  O     14.26237588     12.52433690      2.94787123
  O      7.87743335      9.59933625      2.95875063
  O     14.25965541      9.60615728      2.95000987
  O      7.87878128     15.50595937      2.95494343
  O     14.26342977     15.50721531      2.95376492
  O      5.97093595      2.20406442      1.68331594
  O      5.96503213      5.14574941      1.67968136
  O      5.97026275      8.10856218      1.68305463
  O      5.95222353     14.01866134      1.68758511
  O      5.95891096     11.08514738      1.68342144
  O      5.95904904     16.95347536      1.68455049
  O     12.28829432      2.20412371      1.69654386
  O     18.64335652      2.19845248      1.83329947
  O     12.28405272      5.13539343      1.75878432
  O     18.64431469      5.13979361      1.76576285
  O     12.28624717      8.10569526      1.75972429
  O     18.65035499      8.10651439      1.82070182
  O     12.28674707     14.01923710      1.76158041
  O     18.60985322     14.01936050      1.83619261
  O     12.28877939     11.08255040      1.69284531
  O     18.61930570     11.08930567      1.83220500
  O     12.28723853     16.98930313      1.76094996
  O     18.61825574     16.94826765      1.83612474
  O      3.47535368      2.20071900      1.68977068
  O      3.47757631      5.14089603      1.68289471
  O      3.47544536      8.11090485      1.68801180
  O      3.46304481     14.01856550      1.68052310
  O      3.47049683     11.04470653      1.68313645
  O      3.46925094     16.99542606      1.68418374
  O      9.78119100      2.20419075      1.68060612
  O     16.14712863      2.19745909      1.52630199
  O      9.78831276      5.14167653      1.67551308
  O     16.14446555      5.13834202      1.52596827
  O      9.78853432      8.11182180      1.68298909
  O     16.14883784      8.10981683      1.52295219
  O      9.78297079     14.02039641      1.68951120
  O     16.12264965     14.01841522      1.53054248
  O      9.78761773     11.04607592      1.68157239
  O     16.14124063     11.03820682      1.52383691
  O      9.78708013     16.98967595      1.68978195
  O     16.13746586     16.99552270      1.53337522
  O      1.42493503      0.71435712      0.31540684
  O      1.43127845      3.64342648      0.30951222
  O      1.42757402      6.62548318      0.31407587
  O      1.42928148     12.53932810      0.31033157
  O      1.42324712      9.60258671      0.31344874
  O      1.42849347     15.50079597      0.31216123
  O      7.87004202      0.72659041      0.38285841
  O     14.17787553      0.71730009      0.38469799
  O      7.87508645      3.68733737      0.36969518
  O     14.17955494      3.69818234      0.38696586
  O      7.87620526      6.62888980      0.36954724
  O     14.18107248      6.61734096      0.39047310
  O      7.87085899     12.53743083      0.38207904
  O     14.18105534     12.53290469      0.38368495
  O      7.87251546      9.59341626      0.37900486
  O     14.17768818      9.54550512      0.38612303
  O      7.86948489     15.50292464      0.38518225
  O     14.17767165     15.50481464      0.39004193
 Ti      1.21202878      0.71942337     -1.75752175
 Ti      1.21975963      3.67805472     -1.74110369
 Ti      1.22111716      6.63676035     -1.75533981
 Ti      1.22849042     12.55412208     -1.76041713
 Ti      1.22816291      9.59460746     -1.76515972
 Ti      1.22709747     15.51555674     -1.75892704
 Ti      7.81592619      0.70815691     -1.75287415
 Ti     14.38158119      0.71494161     -1.74474248
 Ti      7.80441092      3.67854378     -1.75257935
 Ti     14.37667801      3.68492053     -1.74500898
 Ti      7.81736303      6.63892084     -1.77625323
 Ti     14.39331679      6.64344134     -1.77549943
 Ti      7.83696388     12.55658465     -1.73913837
 Ti     14.41282109     12.55049553     -1.76073407
 Ti      7.83299588      9.59648136     -1.75768511
 Ti     14.39561168      9.59560913     -1.76648022
 Ti      7.81589198     15.51260085     -1.75790650
 Ti     14.40934091     15.51010728     -1.75630241
 Ti      4.52199207      2.19050397     -1.59161227
 Ti      4.52373824      5.15426536     -1.55230957
 Ti      4.52843688      8.11879900     -1.54955447
 Ti      4.52242957     14.02788300     -1.58772473
 Ti      4.53079138     11.07968169     -1.59126437
 Ti      4.51358792     17.00203362     -1.57907569
 Ti     11.08823270      2.18916184     -1.58733264
 Ti     17.65604673      2.19783817     -1.55248141
 Ti     11.08432363      5.15913192     -1.58883355
 Ti     17.66893902      5.16127300     -1.56595475
 Ti     11.08575948      8.12733818     -1.56890861
 Ti     17.68745030      8.12028738     -1.56060303
 Ti     11.11629116     14.03082356     -1.56258642
 Ti     17.68818458     14.03100085     -1.55812337
 Ti     11.09881007     11.08605676     -1.56207204
 Ti     17.69462097     11.07650451     -1.55489374
 Ti     11.10410228     16.98111534     -1.56242844
 Ti     17.67622831     16.99175535     -1.55176830
 Ti      1.30369970      2.19477698     -5.04772806
 Ti      1.31326858      5.12839073     -5.06048784
 Ti      1.30359635      8.09782824     -5.06656126
 Ti      1.29820627     14.00489532     -5.04681690
 Ti      1.30725828     11.07251972     -5.06745828
 Ti      1.18973891     16.97985252     -5.06112726
 Ti      7.88664190      2.17917051     -5.02767245
 Ti     14.46226053      2.18925818     -5.03217217
 Ti      7.90023798      5.11224747     -5.08518336
 Ti     14.48015323      5.11228181     -5.08395591
 Ti      7.89220098      8.10050586     -5.10119657
 Ti     14.47471673      8.10258285     -5.09878726
 Ti      7.90136460     14.00015542     -5.07435167
 Ti     14.48080143     14.05402072     -5.10816406
 Ti      7.90055760     11.08069982     -5.06893140
 Ti     14.49247153     11.08398312     -5.09432306
 Ti      7.79144382     16.97928002     -5.08718989
 Ti     14.46501303     16.99934982     -5.08067258
 Ti      4.50271475      0.67853286     -4.94553993
 Ti      4.59738169      3.66118026     -4.86025121
 Ti      4.58795066      6.64821928     -4.84268471
 Ti      4.60536881     12.54970432     -4.94445295
 Ti      4.55390161      9.59821891     -4.86271729
 Ti      4.49358231     15.51842562     -4.83720531
 Ti     11.07892972      0.67118858     -4.85049841
 Ti     17.67039963      0.74986841     -4.84503371
 Ti     11.18252030      3.65473495     -4.85592691
 Ti     17.76770073      3.67433079     -4.85125511
 Ti     11.15972404      6.63934225     -4.84267761
 Ti     17.67063633      6.63780116     -4.84905131
 Ti     11.17112152     12.54017942     -4.85760201
 Ti     17.76086193     12.53997692     -4.85494921
 Ti     11.16798488      9.57195295     -4.84076381
 Ti     17.76496603      9.55830793     -4.84740701
 Ti     11.15998408     15.52326962     -4.85603701
 Ti     17.68720513     15.52292102     -4.85539531
  O      4.50839834      0.71926992     -0.34010255
  O      4.51180337      3.65916205     -0.33721896
  O      4.51887021      6.64521145     -0.32875073
  O      4.51161413     12.54452216     -0.34718719
  O      4.51399177      9.60207771     -0.33527885
  O      4.50858683     15.51999133     -0.34330149
  O     11.09212688      0.71909360     -0.33393099
  O     17.67306178      0.71960864     -0.32624871
  O     11.08613898      3.66660444     -0.33859022
  O     17.67187301      3.67579707     -0.33129425
  O     11.08687446      6.64625509     -0.33282806
  O     17.67882754      6.64937818     -0.33545907
  O     11.09791677     12.54805853     -0.32934449
  O     17.68737917     12.54486418     -0.32962540
  O     11.08851999      9.59698890     -0.33086711
  O     17.68149603      9.59505575     -0.33078478
  O     11.10075215     15.51551655     -0.32912311
  O     17.68061647     15.52098124     -0.32755178
  O      2.52847458      2.19707998     -1.67679718
  O      2.52832193      5.15681189     -1.59992168
  O      2.53206906      8.11526864     -1.59912302
  O      2.53200488     14.03278665     -1.67630701
  O      2.53590867     11.07698556     -1.67230927
  O      2.52677125     17.00029427     -1.67740184
  O      9.11406052      2.19884860     -1.67864147
  O     15.66027481      2.20128230     -1.60682690
  O      9.11371744      5.15178411     -1.67959564
  O     15.68312353      5.15606203     -1.67034020
  O      9.11588751      8.11405535     -1.67463941
  O     15.69644398      8.11745240     -1.67484631
  O      9.12073918     14.04147867     -1.59814875
  O     15.69885201     14.03604208     -1.59316166
  O      9.11817370     11.07935990     -1.59758737
  O     15.69852913     11.07306338     -1.59923402
  O      9.11734449     16.99008436     -1.59691019
  O     15.68684695     16.99659036     -1.59685671
  O     -0.10072615      2.20175982     -1.60244580
  O     -0.09579378      5.15240906     -1.67670630
  O     -0.07514011      8.11249668     -1.67802483
  O     -0.07997509     14.03686181     -1.67843142
  O     -0.06251463     11.07923762     -1.67655237
  O     -0.08890155     16.99510939     -1.61109102
  O      6.53071700      2.19032508     -1.67172479
  O     13.06451304      2.19708269     -1.67898259
  O      6.52627547      5.15988572     -1.66892877
  O     13.06317794      5.16288646     -1.67592260
  O      6.53688575      8.12127107     -1.67584601
  O     13.06545909      8.11712948     -1.67680757
  O      6.53388118     14.03021317     -1.67708590
  O     13.11354058     14.03292781     -1.68743175
  O      6.54354296     11.07890128     -1.68159552
  O     13.07787612     11.07697217     -1.68239403
  O      6.51999909     16.98999569     -1.67025951
  O     13.08496487     16.98988190     -1.68200143
  O      4.53786602      0.70758103     -2.98954359
  O      4.54403684      3.67864201     -2.95059834
  O      4.54353763      6.63931244     -2.94590286
  O      4.54931403     12.55001857     -3.00414110
  O      4.54615327      9.59563606     -2.95107735
  O      4.54267882     15.51674688     -2.94921836
  O     11.04506561      0.70543087     -2.94757649
  O     17.62852426      0.71755324     -2.94208397
  O     11.12606359      3.67523189     -2.95208329
  O     17.64228330      3.67077609     -2.95163973
  O     11.04922967      6.64422526     -2.95127756
  O     17.63499851      6.63701585     -2.94918907
  O     11.04627626     12.55632668     -2.94631192
  O     17.63298724     12.55424168     -2.94694517
  O     11.04425365      9.59476593     -2.94705195
  O     17.71067856      9.59785626     -2.94637882
  O     11.11407381     15.51567955     -2.94738607
  O     17.62761844     15.51867240     -2.94770046
  O      1.16730567      0.72032719     -3.64614811
  O      1.24142946      3.67323106     -3.64559693
  O      1.25422791      6.63149921     -3.64836590
  O      1.24573761     12.55074781     -3.65661944
  O      1.24698371      9.58996293     -3.65482874
  O      1.24079256     15.51415465     -3.64850943
  O      7.84755798      0.65822843     -3.65317225
  O     14.42834009      0.70876926     -3.65114366
  O      7.75772666      3.67282632     -3.65992126
  O     14.41503644      3.67239459     -3.65396500
  O      7.84214381      6.64068554     -3.67133771
  O     14.41796467      6.63181367     -3.66446899
  O      7.92675950     12.55284276     -3.66165811
  O     14.51267915     12.55925359     -3.66583031
  O      7.92393007      9.59868971     -3.66747811
  O     14.42720808      9.60368487     -3.66342736
  O      7.85000805     15.50868029     -3.66170648
  O     14.51404225     15.51566398     -3.66595195
  O      5.75671982      2.16324301     -5.01435958
  O      5.75975303      5.15448081     -5.01530183
  O      5.76556015      8.14428322     -5.01539114
  O      5.75653567     14.03557632     -5.01636649
  O      5.78411909     11.08130282     -5.09072135
  O      5.76834411     16.97608362     -5.06744863
  O     12.34626893      2.16631666     -5.01136403
  O     18.92693223      2.16872457     -5.01182269
  O     12.35319463      5.15333855     -5.01211275
  O     18.92479343      5.15702773     -5.01288125
  O     12.38480073      8.10072512     -4.98445473
  O     18.93235633      8.05623231     -5.01259674
  O     12.35286853     14.03080392     -5.00936198
  O     18.92498483     14.03379252     -5.01470270
  O     12.37642473     11.06886562     -4.98555887
  O     18.93427013     11.04978872     -5.01564865
  O     12.37237753     16.98851532     -4.98794386
  O     18.92340113     17.02074082     -5.01352979
  O      3.22044698      2.16860736     -5.01483320
  O      3.22535877      5.15561492     -5.01428870
  O      3.22541749      8.14656077     -5.01556500
  O      3.21913862     14.03265332     -5.01720782
  O      3.22122825     11.05180552     -5.01514675
  O      3.19055941     16.98232112     -4.99293827
  O      9.80662525      2.17046481     -5.01076665
  O     16.39100653      2.17423529     -5.01482192
  O      9.80898175      5.15497252     -5.01507870
  O     16.39253663      5.14959923     -5.01645290
  O      9.91779221      8.13950322     -5.26757440
  O     16.39480123      8.14363750     -5.01513968
  O      9.93210408     14.03336686     -5.19536888
  O     16.50904620     14.03254601     -5.20296988
  O      9.94031990     11.07440600     -5.19705723
  O     16.52457610     11.06721736     -5.19701748
  O      9.89109481     16.97561302     -5.19278317
  O     16.48915131     16.99946280     -5.19553072
  O      1.25088733      0.71851802     -6.18411049
  O      1.24511498      3.66782190     -6.18930110
  O      1.25127594      6.62532430     -6.18717196
  O      1.25087407     12.55127117     -6.19242414
  O      1.24291261      9.58949157     -6.18831295
  O      1.24441005     15.50623474     -6.18118684
  O      7.75313584      0.71934483     -6.18526678
  O     14.41859379      0.72195880     -6.18694327
  O      7.83046563      3.64396538     -6.19141794
  O     14.34234357      3.65447390     -6.19246203
  O      7.75205245      6.62230557     -6.19408800
  O     14.42223371      6.61949175     -6.19834840
  O      7.75339785     12.55076102     -6.19457837
  O     14.33862573     12.56087697     -6.19719842
  O      7.82727799      9.60001139     -6.19093921
  O     14.41597948      9.59571130     -6.19876855
  O      7.75657171     15.49529594     -6.18846092
  O     14.33832771     15.52441085     -6.20041601
 Au     15.64224787      3.86199143      7.84917394
 Au     11.85708456      6.38717911     10.08218541
 Au     12.88369261      3.70050174      7.66726572
 Au     16.13374073      6.87530342      8.00318999
 Au     10.87519463      6.62999907      7.29427593
 Au     14.46714910      7.43753515     10.04853490
 Au     13.49621190      6.66354179      7.52464548
 Au     14.03322857      4.66029508      9.87940956

