#B3LYP/6-31+G(d) OPT FREQ

439, Energy = -13269.71613781 au

0 1
 Ti      1.56609843      0.72518930      4.68022927
 Ti      1.58496676      3.68839463      4.67643107
 Ti      1.59754897      6.64031713      4.66204639
 Ti      1.58906415     12.54853353      4.67674086
 Ti      1.56359559      9.59659202      4.66812348
 Ti      1.61092310     15.49875970      4.67865252
 Ti      7.87119798      0.72583068      4.73527567
 Ti     14.18862724      0.72689142      4.73917574
 Ti      7.86497363      3.68203041      4.73635648
 Ti     14.18556233      3.67183167      4.73249971
 Ti      7.91526956      6.64327829      4.74596538
 Ti     14.20494987      6.64002928      4.84627659
 Ti      7.88549021     12.55246155      4.73093108
 Ti     14.22484319     12.54152340      4.72747163
 Ti      7.87787467      9.60534606      4.78422697
 Ti     14.16338401      9.60114835      4.72874523
 Ti      7.89399895     15.49907468      4.73604449
 Ti     14.23040880     15.49918580      4.73533001
 Ti      4.71421787      2.21038416      5.31650084
 Ti      4.72921569      5.16140162      5.28558997
 Ti      4.71686672      8.10984715      5.19829446
 Ti      4.72315889     14.04952298      5.29186473
 Ti      4.70128791     11.11424559      5.19573786
 Ti      4.72310321     16.98418753      5.29679721
 Ti     11.03011331      2.13447514      5.29999532
 Ti     17.32171181      2.17835421      5.12736005
 Ti     11.04320715      4.91948359      4.80452200
 Ti     17.34139765      5.11231560      5.04078553
 Ti     11.03114037      8.36151450      4.86902793
 Ti     17.33601942      8.16122316      5.11634557
 Ti     11.05318262     14.06290751      5.28796554
 Ti     17.33278142     14.03600533      5.15090025
 Ti     11.03910849     11.15958977      5.29926051
 Ti     17.31694456     11.09854275      5.13172594
 Ti     11.04544209     16.95913483      5.28841174
 Ti     17.32583733     16.97036077      5.13778290
  O      4.72961922      0.71777353      3.75634465
  O      4.72810329      3.69752064      3.75908712
  O      4.72058437      6.62226099      3.70308185
  O      4.66177717     12.53871730      3.73634991
  O      4.71994779      9.60379246      3.68528839
  O      4.66083209     15.50235551      3.75370474
  O     11.02963632      0.71681095      3.76672246
  O     17.25571302      0.72103414      3.65626607
  O     11.02870018      3.56020701      3.67095603
  O     17.25972807      3.69540512      3.60634488
  O     10.95798692      6.61920402      3.76224207
  O     17.26240785      6.62200896      3.60071287
  O     11.02448638     12.52894864      3.76101810
  O     17.18529850     12.52656916      3.65543205
  O     11.02974955      9.68013728      3.67484579
  O     17.26376277      9.59935909      3.62269189
  O     11.02212061     15.51121622      3.75730219
  O     17.18600416     15.50554071      3.65827682
  O      4.72917024      0.72814984      6.38722197
  O      4.72897134      3.70067873      6.38390281
  O      4.73469324      6.68236873      6.31847732
  O      4.79592716      9.60070063      6.31705218
  O      4.73182591     12.52743113      6.32661012
  O      4.72824160     15.50711962      6.38365136
  O     11.03027146      0.70618291      6.40041107
  O     17.41297216      0.72425234      6.23234193
  O     11.03087767      3.71730693      6.24216510
  O     17.40777953      3.69736909      6.17266309
  O     17.27396510      6.62881361      6.20554924
  O     11.03239039     12.59722802      6.39969178
  O     17.41168674     12.53970239      6.23435315
  O     11.03640156      9.56846350      6.22497861
  O     17.40828258      9.59288222      6.22247056
  O     11.03145526     15.50778049      6.39211153
  O     17.41255762     15.50093524      6.23728701
  O      2.76637681      2.20814228      5.12207630
  O      2.77043747      5.17848045      5.12653123
  O      2.76704200      8.12295785      5.11837951
  O      2.75548739     14.01819563      5.19817505
  O      2.76252232     11.03349664      5.12674424
  O      2.76613093     17.00093508      5.12862620
  O      9.06281219      2.20255479      5.12310949
  O     15.35583514      2.20740299      5.19257055
  O      9.11062329      5.13329661      5.11439012
  O     15.35879407      5.11181328      5.03717995
  O      9.12222120      8.10856693      5.11134795
  O     15.36027034      8.18356415      5.04008239
  O      9.07603414     14.02591264      5.12333342
  O     15.36079104     14.01886189      5.20587318
  O      9.07126834     11.09807252      5.12700875
  O     15.35444238     11.03544805      5.19722477
  O      9.06971477     16.99507439      5.12566830
  O     15.35949171     16.99985288      5.20203073
  O      0.39278950      2.21061740      4.96327216
  O      0.39268912      5.18840120      4.96679373
  O      0.38704864      8.10721094      4.96662630
  O      0.38537319     14.02021489      4.89091972
  O      0.39046901     11.09433866      4.96320767
  O      0.39348133     16.94213564      4.96335581
  O      6.68094883      2.20807885      5.12410156
  O     12.97995990      2.19308225      5.11979393
  O      6.70072845      5.18758048      5.12788711
  O     12.92864949      5.18906259      5.04219934
  O      6.68987383      8.10362738      4.97220146
  O     12.92913840      8.09906390      5.04759606
  O      6.68417502     14.02425156      5.11932787
  O     12.98835843     14.02184862      5.04786864
  O      6.67760056     11.09740693      5.03793603
  O     12.98330812     11.10781350      5.11998844
  O      6.68440998     16.95052761      5.12301143
  O     12.99015270     16.94513518      5.11682129
 Ti      1.58653183      2.18562627      1.50399904
 Ti      1.58607252      5.14406991      1.48007285
 Ti      1.58669777      8.10901380      1.48187650
 Ti      1.55949530     14.01752183      1.50262063
 Ti      1.57503303     11.06910817      1.49826206
 Ti      1.57464354     16.96258758      1.50203879
 Ti      7.87841477      2.20731885      1.50603262
 Ti     14.25518090      2.21200749      1.48035043
 Ti      7.87964545      5.16710869      1.51131001
 Ti     14.25467024      5.17749115      1.55426406
 Ti      7.88036017      8.11751068      1.52740110
 Ti     14.26252101      8.07609445      1.54678762
 Ti      7.88432027     14.01499872      1.50453908
 Ti     14.19986105     14.01096817      1.49712974
 Ti      7.88141491     11.05507324      1.53506174
 Ti     14.25239825     11.03472129      1.47556069
 Ti      7.88415812     16.96929945      1.51755319
 Ti     14.21865126     16.97408662      1.51615628
 Ti      4.72890248      0.72205350      1.93110529
 Ti      4.72089630      3.67440871      1.92809628
 Ti      4.72251105      6.62767762      1.88412351
 Ti      4.71194771     12.55408825      1.89139286
 Ti      4.72181747      9.60094388      1.86715485
 Ti      4.70394605     15.50041906      1.91234866
 Ti     11.04548332      0.72161389      1.93415759
 Ti     17.39228086      0.71610032      1.75681941
 Ti     11.08205390      3.64475188      1.59791345
 Ti     17.38952826      3.67002051      1.70354667
 Ti     11.04096471      6.62596012      1.84121317
 Ti     17.38748896      6.62774564      1.75702039
 Ti     11.03489328     12.54609269      1.93604362
 Ti     17.34597033     12.54655445      1.76544974
 Ti     11.09564915      9.61025523      1.63005364
 Ti     17.40408861      9.59021215      1.75135490
 Ti     11.05018826     15.50522669      1.91260275
 Ti     17.33638783     15.49752327      1.76046007
  O      1.65258566      0.71418785      2.89446982
  O      1.65498206      3.69282998      2.89404937
  O      1.65693277      6.61976662      2.88005393
  O      1.65778987     12.53652813      2.89028762
  O      1.65435904      9.60117822      2.88614983
  O      1.66009246     15.50356588      2.88918411
  O      7.87622835      0.72043163      2.95417417
  O     14.25867262      0.72088328      2.95656486
  O      7.87849593      3.69352939      2.95579343
  O     14.25435390      3.63172295      2.95137612
  O      7.88665732      6.61822832      2.95313872
  O     14.26086694      6.62072658      2.97333859
  O      7.88290584     12.53744706      2.94696783
  O     14.26143556     12.52396179      2.94801229
  O      7.88331049      9.60165304      2.96611756
  O     14.25079293      9.60839725      2.94553282
  O      7.87913538     15.50650741      2.95446477
  O     14.26299397     15.50761835      2.95383137
  O      5.97026921      2.20378881      1.68285510
  O      5.96781442      5.13756945      1.67595460
  O      5.97164574      8.11011965      1.67593299
  O      5.96011683     14.02439021      1.68473585
  O      5.96506164     11.09162967      1.67651927
  O      5.95774854     16.95427645      1.68448676
  O     12.29100652      2.19996875      1.68897584
  O     18.64493523      2.19939866      1.83172614
  O     12.28510266      5.13639511      1.75998696
  O     18.64553301      5.13814417      1.76561090
  O     12.28645307      8.10507167      1.76043048
  O     18.65219084      8.10967971      1.82708536
  O     12.28745264     14.01872294      1.76162377
  O     18.60998856     14.01960695      1.83579902
  O     12.28987786     11.08008878      1.69073835
  O     18.62414764     11.09476227      1.83032172
  O     12.28811656     16.99048717      1.76132756
  O     18.62031000     16.94716370      1.83471823
  O      3.47583720      2.20094045      1.69064422
  O      3.47661338      5.13402257      1.67964423
  O      3.47245096      8.11141551      1.68048581
  O      3.46472246     14.02122799      1.67943644
  O      3.46977136     11.08782787      1.67714093
  O      3.47029941     16.99530678      1.68425466
  O      9.78367463      2.20691172      1.68184593
  O     16.14612775      2.19875527      1.52581696
  O      9.79621984      5.13309049      1.68147195
  O     16.14342333      5.13709562      1.52612591
  O      9.79604916      8.11191279      1.68340953
  O     16.14857387      8.11142434      1.52699335
  O      9.78676819     14.02034073      1.68974559
  O     16.11872408     14.01793222      1.52980059
  O      9.79609530     11.04316310      1.68153211
  O     16.14047218     11.04079076      1.52354515
  O      9.78807413     16.98970492      1.69060488
  O     16.13595218     16.99582581      1.53253379
  O      1.42577007      0.71465968      0.31522592
  O      1.43115870      3.64271661      0.30981168
  O      1.42803274      6.62494450      0.31361089
  O      1.42989604     12.54429174      0.30861098
  O      1.42585297      9.60373420      0.31311313
  O      1.42964023     15.50040767      0.31185609
  O      7.87048160      0.72590388      0.38207942
  O     14.17819687      0.71691098      0.38507870
  O      7.87651691      3.68781538      0.36264744
  O     14.17924286      3.69909462      0.38863434
  O      7.87829247      6.63168864      0.37479043
  O     14.18029330      6.61958900      0.39437355
  O      7.87335482     12.53263025      0.38296995
  O     14.17965564     12.53318471      0.38250643
  O      7.87464925      9.59146398      0.38140187
  O     14.17705128      9.54412112      0.38605475
  O      7.87054406     15.50397605      0.38359590
  O     14.17677054     15.50529157      0.38983681
 Ti      1.21202878      0.71942337     -1.75752175
 Ti      1.21975963      3.67805472     -1.74110369
 Ti      1.22111716      6.63676035     -1.75533981
 Ti      1.22849042     12.55412208     -1.76041713
 Ti      1.22816291      9.59460746     -1.76515972
 Ti      1.22709747     15.51555674     -1.75892704
 Ti      7.81592619      0.70815691     -1.75287415
 Ti     14.38158119      0.71494161     -1.74474248
 Ti      7.80441092      3.67854378     -1.75257935
 Ti     14.37667801      3.68492053     -1.74500898
 Ti      7.81736303      6.63892084     -1.77625323
 Ti     14.39331679      6.64344134     -1.77549943
 Ti      7.83696388     12.55658465     -1.73913837
 Ti     14.41282109     12.55049553     -1.76073407
 Ti      7.83299588      9.59648136     -1.75768511
 Ti     14.39561168      9.59560913     -1.76648022
 Ti      7.81589198     15.51260085     -1.75790650
 Ti     14.40934091     15.51010728     -1.75630241
 Ti      4.52199207      2.19050397     -1.59161227
 Ti      4.52373824      5.15426536     -1.55230957
 Ti      4.52843688      8.11879900     -1.54955447
 Ti      4.52242957     14.02788300     -1.58772473
 Ti      4.53079138     11.07968169     -1.59126437
 Ti      4.51358792     17.00203362     -1.57907569
 Ti     11.08823270      2.18916184     -1.58733264
 Ti     17.65604673      2.19783817     -1.55248141
 Ti     11.08432363      5.15913192     -1.58883355
 Ti     17.66893902      5.16127300     -1.56595475
 Ti     11.08575948      8.12733818     -1.56890861
 Ti     17.68745030      8.12028738     -1.56060303
 Ti     11.11629116     14.03082356     -1.56258642
 Ti     17.68818458     14.03100085     -1.55812337
 Ti     11.09881007     11.08605676     -1.56207204
 Ti     17.69462097     11.07650451     -1.55489374
 Ti     11.10410228     16.98111534     -1.56242844
 Ti     17.67622831     16.99175535     -1.55176830
 Ti      1.30369970      2.19477698     -5.04772806
 Ti      1.31326858      5.12839073     -5.06048784
 Ti      1.30359635      8.09782824     -5.06656126
 Ti      1.29820627     14.00489532     -5.04681690
 Ti      1.30725828     11.07251972     -5.06745828
 Ti      1.18973891     16.97985252     -5.06112726
 Ti      7.88664190      2.17917051     -5.02767245
 Ti     14.46226053      2.18925818     -5.03217217
 Ti      7.90023798      5.11224747     -5.08518336
 Ti     14.48015323      5.11228181     -5.08395591
 Ti      7.89220098      8.10050586     -5.10119657
 Ti     14.47471673      8.10258285     -5.09878726
 Ti      7.90136460     14.00015542     -5.07435167
 Ti     14.48080143     14.05402072     -5.10816406
 Ti      7.90055760     11.08069982     -5.06893140
 Ti     14.49247153     11.08398312     -5.09432306
 Ti      7.79144382     16.97928002     -5.08718989
 Ti     14.46501303     16.99934982     -5.08067258
 Ti      4.50271475      0.67853286     -4.94553993
 Ti      4.59738169      3.66118026     -4.86025121
 Ti      4.58795066      6.64821928     -4.84268471
 Ti      4.60536881     12.54970432     -4.94445295
 Ti      4.55390161      9.59821891     -4.86271729
 Ti      4.49358231     15.51842562     -4.83720531
 Ti     11.07892972      0.67118858     -4.85049841
 Ti     17.67039963      0.74986841     -4.84503371
 Ti     11.18252030      3.65473495     -4.85592691
 Ti     17.76770073      3.67433079     -4.85125511
 Ti     11.15972404      6.63934225     -4.84267761
 Ti     17.67063633      6.63780116     -4.84905131
 Ti     11.17112152     12.54017942     -4.85760201
 Ti     17.76086193     12.53997692     -4.85494921
 Ti     11.16798488      9.57195295     -4.84076381
 Ti     17.76496603      9.55830793     -4.84740701
 Ti     11.15998408     15.52326962     -4.85603701
 Ti     17.68720513     15.52292102     -4.85539531
  O      4.50839834      0.71926992     -0.34010255
  O      4.51180337      3.65916205     -0.33721896
  O      4.51887021      6.64521145     -0.32875073
  O      4.51161413     12.54452216     -0.34718719
  O      4.51399177      9.60207771     -0.33527885
  O      4.50858683     15.51999133     -0.34330149
  O     11.09212688      0.71909360     -0.33393099
  O     17.67306178      0.71960864     -0.32624871
  O     11.08613898      3.66660444     -0.33859022
  O     17.67187301      3.67579707     -0.33129425
  O     11.08687446      6.64625509     -0.33282806
  O     17.67882754      6.64937818     -0.33545907
  O     11.09791677     12.54805853     -0.32934449
  O     17.68737917     12.54486418     -0.32962540
  O     11.08851999      9.59698890     -0.33086711
  O     17.68149603      9.59505575     -0.33078478
  O     11.10075215     15.51551655     -0.32912311
  O     17.68061647     15.52098124     -0.32755178
  O      2.52847458      2.19707998     -1.67679718
  O      2.52832193      5.15681189     -1.59992168
  O      2.53206906      8.11526864     -1.59912302
  O      2.53200488     14.03278665     -1.67630701
  O      2.53590867     11.07698556     -1.67230927
  O      2.52677125     17.00029427     -1.67740184
  O      9.11406052      2.19884860     -1.67864147
  O     15.66027481      2.20128230     -1.60682690
  O      9.11371744      5.15178411     -1.67959564
  O     15.68312353      5.15606203     -1.67034020
  O      9.11588751      8.11405535     -1.67463941
  O     15.69644398      8.11745240     -1.67484631
  O      9.12073918     14.04147867     -1.59814875
  O     15.69885201     14.03604208     -1.59316166
  O      9.11817370     11.07935990     -1.59758737
  O     15.69852913     11.07306338     -1.59923402
  O      9.11734449     16.99008436     -1.59691019
  O     15.68684695     16.99659036     -1.59685671
  O     -0.10072615      2.20175982     -1.60244580
  O     -0.09579378      5.15240906     -1.67670630
  O     -0.07514011      8.11249668     -1.67802483
  O     -0.07997509     14.03686181     -1.67843142
  O     -0.06251463     11.07923762     -1.67655237
  O     -0.08890155     16.99510939     -1.61109102
  O      6.53071700      2.19032508     -1.67172479
  O     13.06451304      2.19708269     -1.67898259
  O      6.52627547      5.15988572     -1.66892877
  O     13.06317794      5.16288646     -1.67592260
  O      6.53688575      8.12127107     -1.67584601
  O     13.06545909      8.11712948     -1.67680757
  O      6.53388118     14.03021317     -1.67708590
  O     13.11354058     14.03292781     -1.68743175
  O      6.54354296     11.07890128     -1.68159552
  O     13.07787612     11.07697217     -1.68239403
  O      6.51999909     16.98999569     -1.67025951
  O     13.08496487     16.98988190     -1.68200143
  O      4.53786602      0.70758103     -2.98954359
  O      4.54403684      3.67864201     -2.95059834
  O      4.54353763      6.63931244     -2.94590286
  O      4.54931403     12.55001857     -3.00414110
  O      4.54615327      9.59563606     -2.95107735
  O      4.54267882     15.51674688     -2.94921836
  O     11.04506561      0.70543087     -2.94757649
  O     17.62852426      0.71755324     -2.94208397
  O     11.12606359      3.67523189     -2.95208329
  O     17.64228330      3.67077609     -2.95163973
  O     11.04922967      6.64422526     -2.95127756
  O     17.63499851      6.63701585     -2.94918907
  O     11.04627626     12.55632668     -2.94631192
  O     17.63298724     12.55424168     -2.94694517
  O     11.04425365      9.59476593     -2.94705195
  O     17.71067856      9.59785626     -2.94637882
  O     11.11407381     15.51567955     -2.94738607
  O     17.62761844     15.51867240     -2.94770046
  O      1.16730567      0.72032719     -3.64614811
  O      1.24142946      3.67323106     -3.64559693
  O      1.25422791      6.63149921     -3.64836590
  O      1.24573761     12.55074781     -3.65661944
  O      1.24698371      9.58996293     -3.65482874
  O      1.24079256     15.51415465     -3.64850943
  O      7.84755798      0.65822843     -3.65317225
  O     14.42834009      0.70876926     -3.65114366
  O      7.75772666      3.67282632     -3.65992126
  O     14.41503644      3.67239459     -3.65396500
  O      7.84214381      6.64068554     -3.67133771
  O     14.41796467      6.63181367     -3.66446899
  O      7.92675950     12.55284276     -3.66165811
  O     14.51267915     12.55925359     -3.66583031
  O      7.92393007      9.59868971     -3.66747811
  O     14.42720808      9.60368487     -3.66342736
  O      7.85000805     15.50868029     -3.66170648
  O     14.51404225     15.51566398     -3.66595195
  O      5.75671982      2.16324301     -5.01435958
  O      5.75975303      5.15448081     -5.01530183
  O      5.76556015      8.14428322     -5.01539114
  O      5.75653567     14.03557632     -5.01636649
  O      5.78411909     11.08130282     -5.09072135
  O      5.76834411     16.97608362     -5.06744863
  O     12.34626893      2.16631666     -5.01136403
  O     18.92693223      2.16872457     -5.01182269
  O     12.35319463      5.15333855     -5.01211275
  O     18.92479343      5.15702773     -5.01288125
  O     12.38480073      8.10072512     -4.98445473
  O     18.93235633      8.05623231     -5.01259674
  O     12.35286853     14.03080392     -5.00936198
  O     18.92498483     14.03379252     -5.01470270
  O     12.37642473     11.06886562     -4.98555887
  O     18.93427013     11.04978872     -5.01564865
  O     12.37237753     16.98851532     -4.98794386
  O     18.92340113     17.02074082     -5.01352979
  O      3.22044698      2.16860736     -5.01483320
  O      3.22535877      5.15561492     -5.01428870
  O      3.22541749      8.14656077     -5.01556500
  O      3.21913862     14.03265332     -5.01720782
  O      3.22122825     11.05180552     -5.01514675
  O      3.19055941     16.98232112     -4.99293827
  O      9.80662525      2.17046481     -5.01076665
  O     16.39100653      2.17423529     -5.01482192
  O      9.80898175      5.15497252     -5.01507870
  O     16.39253663      5.14959923     -5.01645290
  O      9.91779221      8.13950322     -5.26757440
  O     16.39480123      8.14363750     -5.01513968
  O      9.93210408     14.03336686     -5.19536888
  O     16.50904620     14.03254601     -5.20296988
  O      9.94031990     11.07440600     -5.19705723
  O     16.52457610     11.06721736     -5.19701748
  O      9.89109481     16.97561302     -5.19278317
  O     16.48915131     16.99946280     -5.19553072
  O      1.25088733      0.71851802     -6.18411049
  O      1.24511498      3.66782190     -6.18930110
  O      1.25127594      6.62532430     -6.18717196
  O      1.25087407     12.55127117     -6.19242414
  O      1.24291261      9.58949157     -6.18831295
  O      1.24441005     15.50623474     -6.18118684
  O      7.75313584      0.71934483     -6.18526678
  O     14.41859379      0.72195880     -6.18694327
  O      7.83046563      3.64396538     -6.19141794
  O     14.34234357      3.65447390     -6.19246203
  O      7.75205245      6.62230557     -6.19408800
  O     14.42223371      6.61949175     -6.19834840
  O      7.75339785     12.55076102     -6.19457837
  O     14.33862573     12.56087697     -6.19719842
  O      7.82727799      9.60001139     -6.19093921
  O     14.41597948      9.59571130     -6.19876855
  O      7.75657171     15.49529594     -6.18846092
  O     14.33832771     15.52441085     -6.20041601
 Au      8.37261703      7.63928727      7.97809759
 Au     15.38337181      6.56763587      7.52156454
 Au      9.03486038     10.38890838      8.52214977
 Au     12.87344888      6.57748002      8.03996955
 Au     10.30376818      5.79934467      7.59690730
 Au     11.58868804     10.88392353      9.17946168
 Au      6.63000285      9.65337571      7.70342679
 Au     10.93870491      8.31959227      8.72851319

