#B3LYP/6-31+G(d) OPT FREQ

439, Energy = -13269.73428919 au

0 1
 Ti      1.57202068      0.72772759      4.67671267
 Ti      1.57720667      3.69073053      4.68243619
 Ti      1.57679517      6.63539215      4.67063555
 Ti      1.59095941     12.54730026      4.67278671
 Ti      1.55675714      9.58980514      4.66995399
 Ti      1.60463279     15.49995518      4.67655534
 Ti      7.86781383      0.72594691      4.73325167
 Ti     14.19105997      0.72365121      4.74344086
 Ti      7.88597868      3.68551642      4.73887607
 Ti     14.19814026      3.67249458      4.74500164
 Ti      7.88964353      6.64554381      4.77042465
 Ti     14.19015486      6.63667424      4.73865336
 Ti      7.86940001     12.53476175      4.77938364
 Ti     14.22548121     12.54412444      4.73574036
 Ti      7.87482053      9.59995806      4.77615631
 Ti     14.17771856      9.59874624      4.74313433
 Ti      7.89374553     15.49471220      4.73490509
 Ti     14.22258671     15.49790054      4.73561838
 Ti      4.71897010      2.19691992      5.30614456
 Ti      4.71862713      5.12630306      5.27243052
 Ti      4.70237997      8.13057392      5.23776564
 Ti      4.72052325     14.04342480      5.29982563
 Ti      4.69581447     11.07016452      5.25236833
 Ti      4.72388344     16.97746553      5.28965595
 Ti     11.03213284      2.14727196      5.29199326
 Ti     17.32591723      2.19936589      5.16094230
 Ti     11.01812222      4.94039116      4.86581588
 Ti     17.29887127      5.14812488      5.14144346
 Ti     11.03032796      8.35976085      4.82298848
 Ti     17.30921739      8.10985570      5.16736692
 Ti     11.04299027     14.07543096      5.28611656
 Ti     17.33370883     14.02678572      5.13727281
 Ti     11.03957178     11.18264934      5.24982624
 Ti     17.32391755     11.06492546      5.13482962
 Ti     11.03905532     16.97144803      5.28967169
 Ti     17.32721861     16.97810037      5.12900997
  O      4.72929888      0.71762554      3.75651651
  O      4.72394750      3.69472376      3.75703184
  O      4.72425333      6.61800052      3.74654631
  O      4.65192643     12.53261608      3.75294293
  O      4.71245699      9.54356494      3.73242483
  O      4.66102544     15.49908484      3.75738654
  O     11.03112578      0.71802910      3.76504502
  O     17.25569361      0.72000296      3.65815501
  O     11.02621400      3.61699575      3.67540910
  O     17.18689017      3.69735230      3.65814357
  O     11.02265979      6.62227818      3.75214703
  O     17.18876285      6.62525193      3.65710187
  O     11.02469059     12.53415543      3.75405689
  O     17.18695055     12.53030561      3.61967472
  O     11.03116719      9.68247305      3.62322755
  O     17.25377414      9.59660934      3.64907315
  O     11.02182103     15.51096940      3.75748093
  O     17.18855538     15.50411576      3.62233554
  O      4.72951772      0.72295137      6.38374176
  O      4.72760360      3.68992879      6.38420834
  O      4.73161551      6.62617983      6.38784208
  O      4.73260816      9.59084576      6.32745507
  O      4.80998014     12.52498608      6.39298034
  O      4.72854327     15.50233239      6.38482796
  O     11.03235275      0.71012624      6.39787146
  O     17.41194056      0.71853213      6.23596306
  O     11.03222281      3.70577064      6.24392215
  O     17.41056974      3.69070677      6.23611484
  O     17.34365963      6.62821140      6.23547328
  O     11.03557047     12.59839716      6.38941817
  O     17.41108109     12.54144143      6.21836443
  O     11.02947381      9.59810385      6.16489214
  O     17.40884083      9.59715469      6.23452059
  O     11.03089188     15.51070749      6.39331169
  O     17.41135686     15.49668682      6.22131795
  O      2.76574758      2.20730047      5.12285707
  O      2.76576727      5.17801574      5.12813358
  O      2.76262640      8.11270098      5.12426610
  O      2.75923476     14.01473048      5.20178516
  O      2.76329626     11.03899376      5.12848283
  O      2.76632030     17.00033827      5.12793319
  O      9.06667823      2.19977940      5.12346687
  O     15.35602131      2.20455956      5.19673205
  O      9.11339768      5.18883261      5.12492563
  O     15.29613431      5.13912683      5.27337157
  O      9.12687210      8.09992827      5.04325384
  O     15.31239607      8.11981687      5.20623676
  O      9.06969257     14.02061879      5.12238037
  O     15.36019941     14.01916501      5.20384763
  O      9.06316929     11.09475544      5.11722916
  O     15.35670979     11.03709229      5.19845794
  O      9.06888557     16.99411902      5.12620130
  O     15.35901641     16.99783124      5.20041001
  O      0.38937798      2.21102177      4.96323191
  O      0.38069961      5.17801777      4.96551465
  O      0.38080189      8.10876382      4.96557709
  O      0.38791055     14.01981446      4.88797500
  O      0.39231189     11.09434339      4.96209168
  O      0.39426405     16.94224314      4.96225116
  O      6.68532212      2.21035164      5.12287499
  O     12.98754325      2.20324412      5.11773116
  O      6.69520416      5.13153444      5.12218823
  O     12.92740679      5.19393421      5.05282462
  O      6.68344155      8.11455410      5.03397228
  O     12.92917060      8.10147685      5.04293551
  O      6.67452913     14.03124001      5.11581911
  O     12.98743690     14.02070879      5.04829048
  O      6.63198083     11.03190161      4.95320934
  O     12.99066012     11.09945932      5.11848330
  O      6.68407315     16.94869581      5.12367204
  O     12.98974923     16.94855851      5.11674289
 Ti      1.57607646      2.20232043      1.49553864
 Ti      1.57662981      5.15862870      1.50621550
 Ti      1.59068549      8.11384880      1.47511516
 Ti      1.56159726     14.02181036      1.49270411
 Ti      1.57615560     11.07083607      1.50050903
 Ti      1.57283012     16.96979133      1.50280558
 Ti      7.87721565      2.21037929      1.50711836
 Ti     14.25039751      2.20127543      1.50225555
 Ti      7.87685589      5.17785423      1.52265202
 Ti     14.24209211      5.16416837      1.51232446
 Ti      7.88573567      8.12345491      1.52630519
 Ti     14.25759420      8.11508528      1.50036033
 Ti      7.87305668     14.00571170      1.51727147
 Ti     14.19745309     14.02033244      1.49428372
 Ti      7.87705635     11.06119909      1.55544685
 Ti     14.25194676     11.07059686      1.50918563
 Ti      7.88294210     16.96537746      1.51282895
 Ti     14.22217311     16.97295318      1.51455210
 Ti      4.72602555      0.72000284      1.92476856
 Ti      4.71630983      3.67297588      1.91792886
 Ti      4.72218299      6.62530719      1.91967411
 Ti      4.69383804     12.54182405      1.91793435
 Ti      4.72917247      9.58838834      1.89647234
 Ti      4.70218435     15.49542428      1.91007983
 Ti     11.04699337      0.72253502      1.93129594
 Ti     17.39525505      0.71858337      1.76183415
 Ti     11.06951665      3.65310092      1.60913085
 Ti     17.35630594      3.68399184      1.76613649
 Ti     11.04695088      6.62709120      1.84514347
 Ti     17.38614748      6.63623335      1.77734833
 Ti     11.02894645     12.54929772      1.91928789
 Ti     17.34240569     12.54884131      1.75851267
 Ti     11.09486404      9.61227821      1.62256389
 Ti     17.40386072      9.59478541      1.77015479
 Ti     11.04677309     15.50615358      1.91167662
 Ti     17.33398476     15.49796077      1.74682874
  O      1.65079588      0.72001438      2.89209903
  O      1.65410195      3.69045413      2.89777312
  O      1.65553449      6.62445176      2.88556933
  O      1.65794388     12.53697089      2.88784996
  O      1.65276209      9.59626530      2.89052331
  O      1.65808711     15.50280009      2.88844330
  O      7.87575203      0.71972071      2.95450034
  O     14.25820332      0.72665621      2.95807121
  O      7.87987115      3.69352099      2.95825856
  O     14.26083250      3.69313845      2.95974475
  O      7.88001457      6.61779625      2.96178057
  O     14.26243221      6.62255470      2.95719385
  O      7.87957836     12.53692291      2.96205433
  O     14.26082663     12.52609968      2.95227584
  O      7.88380313      9.59426790      2.95748114
  O     14.25743910      9.60137221      2.95809711
  O      7.87842075     15.50631218      2.95474596
  O     14.26169920     15.50918677      2.95375347
  O      5.96557067      2.20394922      1.68291943
  O      5.95791974      5.14074992      1.67840355
  O      5.96758383      8.10483575      1.67981094
  O      5.94086286     14.01858846      1.68682605
  O      5.94806211     11.08312178      1.68405072
  O      5.95255571     16.95504220      1.68454218
  O     12.29191847      2.20447160      1.69469903
  O     18.62565549      2.21288821      1.83558572
  O     12.28849124      5.13823249      1.75268117
  O     18.61873317      5.14219437      1.83477296
  O     12.29336199      8.10793340      1.75566320
  O     18.64620454      8.10790800      1.83586620
  O     12.28578978     14.01957686      1.76158249
  O     18.61162980     14.01857994      1.77370222
  O     12.29010906     11.09001001      1.68822101
  O     18.62805509     11.09073865      1.82902603
  O     12.28873816     16.99139863      1.76123180
  O     18.62029549     16.95143885      1.83265011
  O      3.46930633      2.20193509      1.68771751
  O      3.47200492      5.13901501      1.68378084
  O      3.47166612      8.10731409      1.68333885
  O      3.46375824     14.02029709      1.68122337
  O      3.47017187     11.03991117      1.68498610
  O      3.46834792     16.99590235      1.68504851
  O      9.78466823      2.20746733      1.68308354
  O     16.13748768      2.20165537      1.53099465
  O      9.79619368      5.13885668      1.68107127
  O     16.13823273      5.18008971      1.52593550
  O      9.79962053      8.10972654      1.68215727
  O     16.14427628      8.11431007      1.53029807
  O      9.78302962     14.02189385      1.68876251
  O     16.10201123     14.01858675      1.52768382
  O      9.79223906     11.04750295      1.67795053
  O     16.14039989     11.03716775      1.52340615
  O      9.78744685     16.99117169      1.69042895
  O     16.13159401     16.99983303      1.52921628
  O      1.42436726      0.72162144      0.31640414
  O      1.42562762      3.68406042      0.31683839
  O      1.42292717      6.62271630      0.31845684
  O      1.48525025     12.53707457      0.30861932
  O      1.42476082      9.60220111      0.31386219
  O      1.43259850     15.50565888      0.31073922
  O      7.86973390      0.72669225      0.38331088
  O     14.17729091      0.72450734      0.38985858
  O      7.87529892      3.69104007      0.37480766
  O     14.18024534      3.69316364      0.38714174
  O      7.87735953      6.63047087      0.37775873
  O     14.17809670      6.63043167      0.38569096
  O      7.87048446     12.53173444      0.38883833
  O     14.17920545     12.53456895      0.38480383
  O      7.87298483      9.59599247      0.38601385
  O     14.17632423      9.58997056      0.38576169
  O      7.86773884     15.49953706      0.38692252
  O     14.17488050     15.50845729      0.38724222
 Ti      1.21202878      0.71942337     -1.75752175
 Ti      1.21975963      3.67805472     -1.74110369
 Ti      1.22111716      6.63676035     -1.75533981
 Ti      1.22849042     12.55412208     -1.76041713
 Ti      1.22816291      9.59460746     -1.76515972
 Ti      1.22709747     15.51555674     -1.75892704
 Ti      7.81592619      0.70815691     -1.75287415
 Ti     14.38158119      0.71494161     -1.74474248
 Ti      7.80441092      3.67854378     -1.75257935
 Ti     14.37667801      3.68492053     -1.74500898
 Ti      7.81736303      6.63892084     -1.77625323
 Ti     14.39331679      6.64344134     -1.77549943
 Ti      7.83696388     12.55658465     -1.73913837
 Ti     14.41282109     12.55049553     -1.76073407
 Ti      7.83299588      9.59648136     -1.75768511
 Ti     14.39561168      9.59560913     -1.76648022
 Ti      7.81589198     15.51260085     -1.75790650
 Ti     14.40934091     15.51010728     -1.75630241
 Ti      4.52199207      2.19050397     -1.59161227
 Ti      4.52373824      5.15426536     -1.55230957
 Ti      4.52843688      8.11879900     -1.54955447
 Ti      4.52242957     14.02788300     -1.58772473
 Ti      4.53079138     11.07968169     -1.59126437
 Ti      4.51358792     17.00203362     -1.57907569
 Ti     11.08823270      2.18916184     -1.58733264
 Ti     17.65604673      2.19783817     -1.55248141
 Ti     11.08432363      5.15913192     -1.58883355
 Ti     17.66893902      5.16127300     -1.56595475
 Ti     11.08575948      8.12733818     -1.56890861
 Ti     17.68745030      8.12028738     -1.56060303
 Ti     11.11629116     14.03082356     -1.56258642
 Ti     17.68818458     14.03100085     -1.55812337
 Ti     11.09881007     11.08605676     -1.56207204
 Ti     17.69462097     11.07650451     -1.55489374
 Ti     11.10410228     16.98111534     -1.56242844
 Ti     17.67622831     16.99175535     -1.55176830
 Ti      1.30369970      2.19477698     -5.04772806
 Ti      1.31326858      5.12839073     -5.06048784
 Ti      1.30359635      8.09782824     -5.06656126
 Ti      1.29820627     14.00489532     -5.04681690
 Ti      1.30725828     11.07251972     -5.06745828
 Ti      1.18973891     16.97985252     -5.06112726
 Ti      7.88664190      2.17917051     -5.02767245
 Ti     14.46226053      2.18925818     -5.03217217
 Ti      7.90023798      5.11224747     -5.08518336
 Ti     14.48015323      5.11228181     -5.08395591
 Ti      7.89220098      8.10050586     -5.10119657
 Ti     14.47471673      8.10258285     -5.09878726
 Ti      7.90136460     14.00015542     -5.07435167
 Ti     14.48080143     14.05402072     -5.10816406
 Ti      7.90055760     11.08069982     -5.06893140
 Ti     14.49247153     11.08398312     -5.09432306
 Ti      7.79144382     16.97928002     -5.08718989
 Ti     14.46501303     16.99934982     -5.08067258
 Ti      4.50271475      0.67853286     -4.94553993
 Ti      4.59738169      3.66118026     -4.86025121
 Ti      4.58795066      6.64821928     -4.84268471
 Ti      4.60536881     12.54970432     -4.94445295
 Ti      4.55390161      9.59821891     -4.86271729
 Ti      4.49358231     15.51842562     -4.83720531
 Ti     11.07892972      0.67118858     -4.85049841
 Ti     17.67039963      0.74986841     -4.84503371
 Ti     11.18252030      3.65473495     -4.85592691
 Ti     17.76770073      3.67433079     -4.85125511
 Ti     11.15972404      6.63934225     -4.84267761
 Ti     17.67063633      6.63780116     -4.84905131
 Ti     11.17112152     12.54017942     -4.85760201
 Ti     17.76086193     12.53997692     -4.85494921
 Ti     11.16798488      9.57195295     -4.84076381
 Ti     17.76496603      9.55830793     -4.84740701
 Ti     11.15998408     15.52326962     -4.85603701
 Ti     17.68720513     15.52292102     -4.85539531
  O      4.50839834      0.71926992     -0.34010255
  O      4.51180337      3.65916205     -0.33721896
  O      4.51887021      6.64521145     -0.32875073
  O      4.51161413     12.54452216     -0.34718719
  O      4.51399177      9.60207771     -0.33527885
  O      4.50858683     15.51999133     -0.34330149
  O     11.09212688      0.71909360     -0.33393099
  O     17.67306178      0.71960864     -0.32624871
  O     11.08613898      3.66660444     -0.33859022
  O     17.67187301      3.67579707     -0.33129425
  O     11.08687446      6.64625509     -0.33282806
  O     17.67882754      6.64937818     -0.33545907
  O     11.09791677     12.54805853     -0.32934449
  O     17.68737917     12.54486418     -0.32962540
  O     11.08851999      9.59698890     -0.33086711
  O     17.68149603      9.59505575     -0.33078478
  O     11.10075215     15.51551655     -0.32912311
  O     17.68061647     15.52098124     -0.32755178
  O      2.52847458      2.19707998     -1.67679718
  O      2.52832193      5.15681189     -1.59992168
  O      2.53206906      8.11526864     -1.59912302
  O      2.53200488     14.03278665     -1.67630701
  O      2.53590867     11.07698556     -1.67230927
  O      2.52677125     17.00029427     -1.67740184
  O      9.11406052      2.19884860     -1.67864147
  O     15.66027481      2.20128230     -1.60682690
  O      9.11371744      5.15178411     -1.67959564
  O     15.68312353      5.15606203     -1.67034020
  O      9.11588751      8.11405535     -1.67463941
  O     15.69644398      8.11745240     -1.67484631
  O      9.12073918     14.04147867     -1.59814875
  O     15.69885201     14.03604208     -1.59316166
  O      9.11817370     11.07935990     -1.59758737
  O     15.69852913     11.07306338     -1.59923402
  O      9.11734449     16.99008436     -1.59691019
  O     15.68684695     16.99659036     -1.59685671
  O     -0.10072615      2.20175982     -1.60244580
  O     -0.09579378      5.15240906     -1.67670630
  O     -0.07514011      8.11249668     -1.67802483
  O     -0.07997509     14.03686181     -1.67843142
  O     -0.06251463     11.07923762     -1.67655237
  O     -0.08890155     16.99510939     -1.61109102
  O      6.53071700      2.19032508     -1.67172479
  O     13.06451304      2.19708269     -1.67898259
  O      6.52627547      5.15988572     -1.66892877
  O     13.06317794      5.16288646     -1.67592260
  O      6.53688575      8.12127107     -1.67584601
  O     13.06545909      8.11712948     -1.67680757
  O      6.53388118     14.03021317     -1.67708590
  O     13.11354058     14.03292781     -1.68743175
  O      6.54354296     11.07890128     -1.68159552
  O     13.07787612     11.07697217     -1.68239403
  O      6.51999909     16.98999569     -1.67025951
  O     13.08496487     16.98988190     -1.68200143
  O      4.53786602      0.70758103     -2.98954359
  O      4.54403684      3.67864201     -2.95059834
  O      4.54353763      6.63931244     -2.94590286
  O      4.54931403     12.55001857     -3.00414110
  O      4.54615327      9.59563606     -2.95107735
  O      4.54267882     15.51674688     -2.94921836
  O     11.04506561      0.70543087     -2.94757649
  O     17.62852426      0.71755324     -2.94208397
  O     11.12606359      3.67523189     -2.95208329
  O     17.64228330      3.67077609     -2.95163973
  O     11.04922967      6.64422526     -2.95127756
  O     17.63499851      6.63701585     -2.94918907
  O     11.04627626     12.55632668     -2.94631192
  O     17.63298724     12.55424168     -2.94694517
  O     11.04425365      9.59476593     -2.94705195
  O     17.71067856      9.59785626     -2.94637882
  O     11.11407381     15.51567955     -2.94738607
  O     17.62761844     15.51867240     -2.94770046
  O      1.16730567      0.72032719     -3.64614811
  O      1.24142946      3.67323106     -3.64559693
  O      1.25422791      6.63149921     -3.64836590
  O      1.24573761     12.55074781     -3.65661944
  O      1.24698371      9.58996293     -3.65482874
  O      1.24079256     15.51415465     -3.64850943
  O      7.84755798      0.65822843     -3.65317225
  O     14.42834009      0.70876926     -3.65114366
  O      7.75772666      3.67282632     -3.65992126
  O     14.41503644      3.67239459     -3.65396500
  O      7.84214381      6.64068554     -3.67133771
  O     14.41796467      6.63181367     -3.66446899
  O      7.92675950     12.55284276     -3.66165811
  O     14.51267915     12.55925359     -3.66583031
  O      7.92393007      9.59868971     -3.66747811
  O     14.42720808      9.60368487     -3.66342736
  O      7.85000805     15.50868029     -3.66170648
  O     14.51404225     15.51566398     -3.66595195
  O      5.75671982      2.16324301     -5.01435958
  O      5.75975303      5.15448081     -5.01530183
  O      5.76556015      8.14428322     -5.01539114
  O      5.75653567     14.03557632     -5.01636649
  O      5.78411909     11.08130282     -5.09072135
  O      5.76834411     16.97608362     -5.06744863
  O     12.34626893      2.16631666     -5.01136403
  O     18.92693223      2.16872457     -5.01182269
  O     12.35319463      5.15333855     -5.01211275
  O     18.92479343      5.15702773     -5.01288125
  O     12.38480073      8.10072512     -4.98445473
  O     18.93235633      8.05623231     -5.01259674
  O     12.35286853     14.03080392     -5.00936198
  O     18.92498483     14.03379252     -5.01470270
  O     12.37642473     11.06886562     -4.98555887
  O     18.93427013     11.04978872     -5.01564865
  O     12.37237753     16.98851532     -4.98794386
  O     18.92340113     17.02074082     -5.01352979
  O      3.22044698      2.16860736     -5.01483320
  O      3.22535877      5.15561492     -5.01428870
  O      3.22541749      8.14656077     -5.01556500
  O      3.21913862     14.03265332     -5.01720782
  O      3.22122825     11.05180552     -5.01514675
  O      3.19055941     16.98232112     -4.99293827
  O      9.80662525      2.17046481     -5.01076665
  O     16.39100653      2.17423529     -5.01482192
  O      9.80898175      5.15497252     -5.01507870
  O     16.39253663      5.14959923     -5.01645290
  O      9.91779221      8.13950322     -5.26757440
  O     16.39480123      8.14363750     -5.01513968
  O      9.93210408     14.03336686     -5.19536888
  O     16.50904620     14.03254601     -5.20296988
  O      9.94031990     11.07440600     -5.19705723
  O     16.52457610     11.06721736     -5.19701748
  O      9.89109481     16.97561302     -5.19278317
  O     16.48915131     16.99946280     -5.19553072
  O      1.25088733      0.71851802     -6.18411049
  O      1.24511498      3.66782190     -6.18930110
  O      1.25127594      6.62532430     -6.18717196
  O      1.25087407     12.55127117     -6.19242414
  O      1.24291261      9.58949157     -6.18831295
  O      1.24441005     15.50623474     -6.18118684
  O      7.75313584      0.71934483     -6.18526678
  O     14.41859379      0.72195880     -6.18694327
  O      7.83046563      3.64396538     -6.19141794
  O     14.34234357      3.65447390     -6.19246203
  O      7.75205245      6.62230557     -6.19408800
  O     14.42223371      6.61949175     -6.19834840
  O      7.75339785     12.55076102     -6.19457837
  O     14.33862573     12.56087697     -6.19719842
  O      7.82727799      9.60001139     -6.19093921
  O     14.41597948      9.59571130     -6.19876855
  O      7.75657171     15.49529594     -6.18846092
  O     14.33832771     15.52441085     -6.20041601
 Au     11.71371328      6.32469399      7.46707624
 Au      7.69290836      9.38394861      7.89587344
 Au      6.99743286     12.02300874      7.68420184
 Au     11.29997216      8.79914435      8.53144824
 Au      6.57088493      6.92049377      7.77824246
 Au     11.98656212     11.23112902      9.34032608
 Au      9.19525943      7.05603635      8.00568317
 Au      9.46598404     11.37470447      8.46819790

