#B3LYP/6-31+G(d) OPT FREQ

439, Energy = -13269.72190992 au

0 1
 Ti      1.56817968      0.72543550      4.71569460
 Ti      1.57923547      3.68745603      4.70621633
 Ti      1.58221404      6.64087201      4.66440839
 Ti      1.59766008     12.54489827      4.67813755
 Ti      1.57016100      9.59598889      4.66993811
 Ti      1.60215537     15.49698419      4.68824735
 Ti      7.86852937      0.72706303      4.73429353
 Ti     14.19140306      0.72165964      4.74023880
 Ti      7.89218160      3.68643178      4.73756163
 Ti     14.20788764      3.66212484      4.73190469
 Ti      7.89408220      6.65073887      4.78842084
 Ti     14.16800872      6.62279120      4.81340332
 Ti      7.88518102     12.54961402      4.73655270
 Ti     14.22859569     12.54038847      4.72739130
 Ti      7.88166123      9.61121194      4.78224523
 Ti     14.19157878      9.59052778      4.74294587
 Ti      7.89005262     15.49856745      4.73482989
 Ti     14.23077307     15.49675105      4.73584854
 Ti      4.72133656      2.19025373      5.31075090
 Ti      4.71518808      5.12485413      5.27098837
 Ti      4.71602834      8.11614836      5.26125704
 Ti      4.72603366     14.02170157      5.31822647
 Ti      4.72381845     11.08189766      5.28138990
 Ti      4.72154805     16.96350613      5.29246755
 Ti     11.03729875      2.15117105      5.31945354
 Ti     17.32823179      2.19071677      5.17099570
 Ti     11.01610808      4.95763109      4.72108082
 Ti     17.32747772      5.13557548      5.13381593
 Ti     11.03243889      8.37525490      4.81220815
 Ti     17.32101643      8.11174272      5.15730730
 Ti     11.05097775     14.07248410      5.28543531
 Ti     17.33520798     14.02426315      5.15535822
 Ti     11.04868691     11.18484610      5.26160080
 Ti     17.32739739     11.07046757      5.13720064
 Ti     11.04181032     16.96374191      5.28178534
 Ti     17.32882912     16.96594180      5.13748574
  O      4.73116747      0.71934103      3.75615719
  O      4.72611643      3.69591353      3.75691255
  O      4.72211670      6.61828534      3.74303653
  O      4.72240637     12.53171216      3.75874639
  O      4.72178751      9.60135089      3.73603036
  O      4.66162478     15.50401505      3.75462825
  O     11.03123133      0.72355064      3.77496369
  O     17.26052990      0.71966798      3.66395535
  O     11.01639688      3.54848496      3.66575635
  O     17.25289971      3.69171713      3.66061837
  O     11.02309916      6.62731603      3.75210617
  O     17.25091396      6.62422592      3.62037272
  O     11.02874821     12.53794221      3.75479363
  O     17.18517721     12.52741962      3.64440291
  O     11.03468063      9.68451130      3.61736703
  O     17.25465900      9.59597253      3.63452148
  O     11.02250997     15.51244455      3.75875431
  O     17.18855319     15.50817398      3.65682979
  O      4.73086766      0.72040177      6.38454388
  O      4.72881683      3.69055655      6.38483149
  O      4.80646769      6.62660926      6.38192921
  O      4.79993426      9.57551482      6.33845101
  O      4.72996726     12.53006914      6.38709181
  O      4.72973660     15.50301447      6.38840126
  O     11.03223162      0.71363702      6.40162985
  O     17.40850187      0.71710974      6.24069031
  O     11.03448740      3.77494327      6.24807137
  O     17.40810752      3.69453769      6.24026203
  O     17.33766355      6.62683682      6.23161821
  O     11.03156951     12.59806324      6.39682421
  O     17.41151620     12.53350557      6.23200055
  O     11.03436995      9.59433701      6.16515316
  O     17.41025164      9.59110079      6.23018847
  O     11.03109018     15.51136601      6.39207164
  O     17.40869370     15.49328001      6.23647390
  O      2.77259362      2.20698388      5.12641731
  O      2.77059994      5.18191603      5.13712841
  O      2.77451777      8.11495663      5.12567502
  O      2.75855011     14.01719334      5.19785237
  O      2.77115975     11.03811428      5.12944343
  O      2.77013215     16.99710385      5.13104879
  O      9.07375808      2.19966032      5.12927328
  O     15.35906616      2.19853555      5.19814907
  O      9.12905621      5.18587822      5.11769803
  O     15.34171481      5.12394955      5.19159032
  O      9.12934950      8.10509446      5.04807725
  O     15.33847568      8.12197911      5.18657581
  O      9.07590694     14.02434908      5.12464148
  O     15.36047634     14.01795028      5.20504894
  O      9.09489585     11.09377626      5.04088124
  O     15.35821732     11.03348570      5.19897331
  O      9.07135392     16.99462620      5.12690392
  O     15.35824907     16.99867197      5.20243497
  O      0.39586329      2.21098457      5.03705948
  O      0.39024488      5.18560231      4.97076527
  O      0.38915811      8.11101540      4.96557717
  O      0.38660683     14.01796599      4.89193796
  O      0.39413909     11.09177616      4.96240130
  O      0.39851001     16.93904969      5.03318639
  O      6.68952342      2.21058486      5.12288545
  O     12.98172474      2.20039472      5.12221463
  O      6.69889076      5.12235571      5.11627075
  O     12.92895367      5.12726229      4.95377770
  O      6.68216049      8.11907270      4.96187862
  O     12.92477285      8.10175026      5.04409500
  O      6.68433806     14.02706142      5.12304207
  O     12.98882160     14.02027701      5.04772139
  O      6.69236490     11.09109122      5.11665391
  O     12.99372393     11.09799229      5.11717608
  O      6.68624817     16.95055645      5.12307857
  O     12.98857909     16.94650761      5.11732886
 Ti      1.58473361      2.18625956      1.51673421
 Ti      1.58461700      5.14134925      1.49732531
 Ti      1.58853867      8.10913208      1.47520075
 Ti      1.56233398     14.02086247      1.50174679
 Ti      1.57737905     11.07194604      1.49876320
 Ti      1.57330322     16.96636255      1.51312946
 Ti      7.87711565      2.21302730      1.50444709
 Ti     14.25931697      2.20718986      1.48422868
 Ti      7.87751286      5.18008734      1.52673031
 Ti     14.25667982      5.16870661      1.53936881
 Ti      7.87702220      8.11254463      1.54686368
 Ti     14.26639427      8.08333764      1.53527234
 Ti      7.87879407     14.01134626      1.50594303
 Ti     14.20301872     14.01275608      1.49557570
 Ti      7.87794290     11.04712473      1.53065713
 Ti     14.25553202     11.04166369      1.48394485
 Ti      7.88173691     16.97010343      1.51553881
 Ti     14.22445820     16.97237565      1.51573105
 Ti      4.72852500      0.72071183      1.93020561
 Ti      4.72071015      3.67375826      1.92107606
 Ti      4.72152225      6.62941133      1.92132665
 Ti      4.71856397     12.55108537      1.92233264
 Ti      4.71800422      9.60086122      1.91269786
 Ti      4.70119501     15.49888672      1.91672949
 Ti     11.04649036      0.72062341      1.94016825
 Ti     17.39146212      0.71646173      1.76710216
 Ti     11.07951414      3.63890341      1.59347685
 Ti     17.38727925      3.67242692      1.76652553
 Ti     11.05242837      6.63106321      1.77152886
 Ti     17.39217081      6.62772928      1.76868126
 Ti     11.03336910     12.55115707      1.92299653
 Ti     17.34772438     12.54619608      1.77149071
 Ti     11.09523568      9.61827965      1.62053529
 Ti     17.40600460      9.59084363      1.76693395
 Ti     11.05026205     15.50677280      1.90786005
 Ti     17.33935827     15.49491382      1.76035530
  O      1.64760507      0.71506041      2.93307202
  O      1.65489440      3.68741759      2.92679301
  O      1.65802884      6.62165792      2.88258509
  O      1.65892417     12.53677375      2.89136487
  O      1.65556154      9.59986588      2.88787916
  O      1.65810254     15.50505705      2.89603343
  O      7.87679138      0.72064086      2.95497105
  O     14.25855066      0.72100408      2.95735970
  O      7.88148473      3.69297112      2.95713719
  O     14.26326407      3.63406904      2.94999159
  O      7.88155350      6.61583471      2.96188319
  O     14.26418310      6.61971400      2.96972348
  O      7.87818450     12.53645432      2.94923504
  O     14.26135190     12.52374227      2.94811640
  O      7.87971204      9.60309305      2.95994947
  O     14.25722620      9.60153109      2.95765084
  O      7.87930396     15.50650110      2.95470344
  O     14.26286698     15.50740574      2.95420583
  O      5.96942186      2.20435535      1.68275726
  O      5.96238629      5.14192347      1.67818808
  O      5.96371087      8.11047267      1.68219592
  O      5.95884109     14.02514130      1.68470091
  O      5.95925110     11.08245973      1.67939339
  O      5.95758922     16.95533801      1.68459053
  O     12.29218853      2.20006224      1.68968943
  O     18.64031768      2.20208637      1.83774762
  O     12.28887874      5.13200549      1.75767817
  O     18.64370087      5.13548973      1.82550171
  O     12.29110542      8.10544564      1.75540039
  O     18.65241804      8.10836523      1.83055303
  O     12.28773533     14.02007883      1.76097976
  O     18.61113104     14.02047093      1.83507634
  O     12.29205215     11.08817639      1.68690785
  O     18.62674738     11.09224132      1.83189012
  O     12.28838674     16.99164906      1.76231608
  O     18.61921822     16.94827359      1.83594712
  O      3.47386892      2.20077939      1.69170116
  O      3.47413355      5.13533049      1.68339031
  O      3.47370757      8.11129782      1.68582025
  O      3.46576077     14.01877598      1.68285486
  O      3.47213844     11.08635621      1.68386772
  O      3.46913566     16.99775303      1.68527773
  O      9.78526451      2.20561429      1.68117423
  O     16.14597433      2.20054605      1.52986825
  O      9.80594885      5.13786003      1.68385575
  O     16.14581034      5.13743832      1.53014361
  O      9.80192402      8.10780923      1.68245240
  O     16.14896150      8.10995888      1.52887675
  O      9.78641063     14.02177169      1.68952600
  O     16.11592105     14.01882684      1.52978134
  O      9.79432903     11.04720235      1.67773061
  O     16.13990083     11.03847881      1.52392966
  O      9.78953872     16.99137540      1.69221439
  O     16.13476900     16.99602437      1.53353984
  O      1.42706406      0.71695911      0.32356393
  O      1.43079785      3.64224591      0.32110109
  O      1.42498672      6.61865953      0.31842599
  O      1.43050075     12.54506496      0.31009209
  O      1.42629946      9.60353876      0.31397245
  O      1.43008917     15.50486973      0.31601401
  O      7.87068700      0.72716688      0.38223567
  O     14.17822227      0.71709146      0.38606750
  O      7.87708844      3.69258461      0.37322379
  O     14.17898103      3.69678171      0.38599193
  O      7.87862436      6.63232349      0.38023423
  O     14.18031703      6.61983703      0.39180746
  O      7.87231503     12.53212783      0.38327463
  O     14.18019379     12.53195362      0.38379478
  O      7.87458095      9.58244206      0.38308240
  O     14.17666007      9.54811905      0.38731099
  O      7.87105932     15.50381062      0.38472641
  O     14.17607687     15.50553478      0.38910218
 Ti      1.21202878      0.71942337     -1.75752175
 Ti      1.21975963      3.67805472     -1.74110369
 Ti      1.22111716      6.63676035     -1.75533981
 Ti      1.22849042     12.55412208     -1.76041713
 Ti      1.22816291      9.59460746     -1.76515972
 Ti      1.22709747     15.51555674     -1.75892704
 Ti      7.81592619      0.70815691     -1.75287415
 Ti     14.38158119      0.71494161     -1.74474248
 Ti      7.80441092      3.67854378     -1.75257935
 Ti     14.37667801      3.68492053     -1.74500898
 Ti      7.81736303      6.63892084     -1.77625323
 Ti     14.39331679      6.64344134     -1.77549943
 Ti      7.83696388     12.55658465     -1.73913837
 Ti     14.41282109     12.55049553     -1.76073407
 Ti      7.83299588      9.59648136     -1.75768511
 Ti     14.39561168      9.59560913     -1.76648022
 Ti      7.81589198     15.51260085     -1.75790650
 Ti     14.40934091     15.51010728     -1.75630241
 Ti      4.52199207      2.19050397     -1.59161227
 Ti      4.52373824      5.15426536     -1.55230957
 Ti      4.52843688      8.11879900     -1.54955447
 Ti      4.52242957     14.02788300     -1.58772473
 Ti      4.53079138     11.07968169     -1.59126437
 Ti      4.51358792     17.00203362     -1.57907569
 Ti     11.08823270      2.18916184     -1.58733264
 Ti     17.65604673      2.19783817     -1.55248141
 Ti     11.08432363      5.15913192     -1.58883355
 Ti     17.66893902      5.16127300     -1.56595475
 Ti     11.08575948      8.12733818     -1.56890861
 Ti     17.68745030      8.12028738     -1.56060303
 Ti     11.11629116     14.03082356     -1.56258642
 Ti     17.68818458     14.03100085     -1.55812337
 Ti     11.09881007     11.08605676     -1.56207204
 Ti     17.69462097     11.07650451     -1.55489374
 Ti     11.10410228     16.98111534     -1.56242844
 Ti     17.67622831     16.99175535     -1.55176830
 Ti      1.30369970      2.19477698     -5.04772806
 Ti      1.31326858      5.12839073     -5.06048784
 Ti      1.30359635      8.09782824     -5.06656126
 Ti      1.29820627     14.00489532     -5.04681690
 Ti      1.30725828     11.07251972     -5.06745828
 Ti      1.18973891     16.97985252     -5.06112726
 Ti      7.88664190      2.17917051     -5.02767245
 Ti     14.46226053      2.18925818     -5.03217217
 Ti      7.90023798      5.11224747     -5.08518336
 Ti     14.48015323      5.11228181     -5.08395591
 Ti      7.89220098      8.10050586     -5.10119657
 Ti     14.47471673      8.10258285     -5.09878726
 Ti      7.90136460     14.00015542     -5.07435167
 Ti     14.48080143     14.05402072     -5.10816406
 Ti      7.90055760     11.08069982     -5.06893140
 Ti     14.49247153     11.08398312     -5.09432306
 Ti      7.79144382     16.97928002     -5.08718989
 Ti     14.46501303     16.99934982     -5.08067258
 Ti      4.50271475      0.67853286     -4.94553993
 Ti      4.59738169      3.66118026     -4.86025121
 Ti      4.58795066      6.64821928     -4.84268471
 Ti      4.60536881     12.54970432     -4.94445295
 Ti      4.55390161      9.59821891     -4.86271729
 Ti      4.49358231     15.51842562     -4.83720531
 Ti     11.07892972      0.67118858     -4.85049841
 Ti     17.67039963      0.74986841     -4.84503371
 Ti     11.18252030      3.65473495     -4.85592691
 Ti     17.76770073      3.67433079     -4.85125511
 Ti     11.15972404      6.63934225     -4.84267761
 Ti     17.67063633      6.63780116     -4.84905131
 Ti     11.17112152     12.54017942     -4.85760201
 Ti     17.76086193     12.53997692     -4.85494921
 Ti     11.16798488      9.57195295     -4.84076381
 Ti     17.76496603      9.55830793     -4.84740701
 Ti     11.15998408     15.52326962     -4.85603701
 Ti     17.68720513     15.52292102     -4.85539531
  O      4.50839834      0.71926992     -0.34010255
  O      4.51180337      3.65916205     -0.33721896
  O      4.51887021      6.64521145     -0.32875073
  O      4.51161413     12.54452216     -0.34718719
  O      4.51399177      9.60207771     -0.33527885
  O      4.50858683     15.51999133     -0.34330149
  O     11.09212688      0.71909360     -0.33393099
  O     17.67306178      0.71960864     -0.32624871
  O     11.08613898      3.66660444     -0.33859022
  O     17.67187301      3.67579707     -0.33129425
  O     11.08687446      6.64625509     -0.33282806
  O     17.67882754      6.64937818     -0.33545907
  O     11.09791677     12.54805853     -0.32934449
  O     17.68737917     12.54486418     -0.32962540
  O     11.08851999      9.59698890     -0.33086711
  O     17.68149603      9.59505575     -0.33078478
  O     11.10075215     15.51551655     -0.32912311
  O     17.68061647     15.52098124     -0.32755178
  O      2.52847458      2.19707998     -1.67679718
  O      2.52832193      5.15681189     -1.59992168
  O      2.53206906      8.11526864     -1.59912302
  O      2.53200488     14.03278665     -1.67630701
  O      2.53590867     11.07698556     -1.67230927
  O      2.52677125     17.00029427     -1.67740184
  O      9.11406052      2.19884860     -1.67864147
  O     15.66027481      2.20128230     -1.60682690
  O      9.11371744      5.15178411     -1.67959564
  O     15.68312353      5.15606203     -1.67034020
  O      9.11588751      8.11405535     -1.67463941
  O     15.69644398      8.11745240     -1.67484631
  O      9.12073918     14.04147867     -1.59814875
  O     15.69885201     14.03604208     -1.59316166
  O      9.11817370     11.07935990     -1.59758737
  O     15.69852913     11.07306338     -1.59923402
  O      9.11734449     16.99008436     -1.59691019
  O     15.68684695     16.99659036     -1.59685671
  O     -0.10072615      2.20175982     -1.60244580
  O     -0.09579378      5.15240906     -1.67670630
  O     -0.07514011      8.11249668     -1.67802483
  O     -0.07997509     14.03686181     -1.67843142
  O     -0.06251463     11.07923762     -1.67655237
  O     -0.08890155     16.99510939     -1.61109102
  O      6.53071700      2.19032508     -1.67172479
  O     13.06451304      2.19708269     -1.67898259
  O      6.52627547      5.15988572     -1.66892877
  O     13.06317794      5.16288646     -1.67592260
  O      6.53688575      8.12127107     -1.67584601
  O     13.06545909      8.11712948     -1.67680757
  O      6.53388118     14.03021317     -1.67708590
  O     13.11354058     14.03292781     -1.68743175
  O      6.54354296     11.07890128     -1.68159552
  O     13.07787612     11.07697217     -1.68239403
  O      6.51999909     16.98999569     -1.67025951
  O     13.08496487     16.98988190     -1.68200143
  O      4.53786602      0.70758103     -2.98954359
  O      4.54403684      3.67864201     -2.95059834
  O      4.54353763      6.63931244     -2.94590286
  O      4.54931403     12.55001857     -3.00414110
  O      4.54615327      9.59563606     -2.95107735
  O      4.54267882     15.51674688     -2.94921836
  O     11.04506561      0.70543087     -2.94757649
  O     17.62852426      0.71755324     -2.94208397
  O     11.12606359      3.67523189     -2.95208329
  O     17.64228330      3.67077609     -2.95163973
  O     11.04922967      6.64422526     -2.95127756
  O     17.63499851      6.63701585     -2.94918907
  O     11.04627626     12.55632668     -2.94631192
  O     17.63298724     12.55424168     -2.94694517
  O     11.04425365      9.59476593     -2.94705195
  O     17.71067856      9.59785626     -2.94637882
  O     11.11407381     15.51567955     -2.94738607
  O     17.62761844     15.51867240     -2.94770046
  O      1.16730567      0.72032719     -3.64614811
  O      1.24142946      3.67323106     -3.64559693
  O      1.25422791      6.63149921     -3.64836590
  O      1.24573761     12.55074781     -3.65661944
  O      1.24698371      9.58996293     -3.65482874
  O      1.24079256     15.51415465     -3.64850943
  O      7.84755798      0.65822843     -3.65317225
  O     14.42834009      0.70876926     -3.65114366
  O      7.75772666      3.67282632     -3.65992126
  O     14.41503644      3.67239459     -3.65396500
  O      7.84214381      6.64068554     -3.67133771
  O     14.41796467      6.63181367     -3.66446899
  O      7.92675950     12.55284276     -3.66165811
  O     14.51267915     12.55925359     -3.66583031
  O      7.92393007      9.59868971     -3.66747811
  O     14.42720808      9.60368487     -3.66342736
  O      7.85000805     15.50868029     -3.66170648
  O     14.51404225     15.51566398     -3.66595195
  O      5.75671982      2.16324301     -5.01435958
  O      5.75975303      5.15448081     -5.01530183
  O      5.76556015      8.14428322     -5.01539114
  O      5.75653567     14.03557632     -5.01636649
  O      5.78411909     11.08130282     -5.09072135
  O      5.76834411     16.97608362     -5.06744863
  O     12.34626893      2.16631666     -5.01136403
  O     18.92693223      2.16872457     -5.01182269
  O     12.35319463      5.15333855     -5.01211275
  O     18.92479343      5.15702773     -5.01288125
  O     12.38480073      8.10072512     -4.98445473
  O     18.93235633      8.05623231     -5.01259674
  O     12.35286853     14.03080392     -5.00936198
  O     18.92498483     14.03379252     -5.01470270
  O     12.37642473     11.06886562     -4.98555887
  O     18.93427013     11.04978872     -5.01564865
  O     12.37237753     16.98851532     -4.98794386
  O     18.92340113     17.02074082     -5.01352979
  O      3.22044698      2.16860736     -5.01483320
  O      3.22535877      5.15561492     -5.01428870
  O      3.22541749      8.14656077     -5.01556500
  O      3.21913862     14.03265332     -5.01720782
  O      3.22122825     11.05180552     -5.01514675
  O      3.19055941     16.98232112     -4.99293827
  O      9.80662525      2.17046481     -5.01076665
  O     16.39100653      2.17423529     -5.01482192
  O      9.80898175      5.15497252     -5.01507870
  O     16.39253663      5.14959923     -5.01645290
  O      9.91779221      8.13950322     -5.26757440
  O     16.39480123      8.14363750     -5.01513968
  O      9.93210408     14.03336686     -5.19536888
  O     16.50904620     14.03254601     -5.20296988
  O      9.94031990     11.07440600     -5.19705723
  O     16.52457610     11.06721736     -5.19701748
  O      9.89109481     16.97561302     -5.19278317
  O     16.48915131     16.99946280     -5.19553072
  O      1.25088733      0.71851802     -6.18411049
  O      1.24511498      3.66782190     -6.18930110
  O      1.25127594      6.62532430     -6.18717196
  O      1.25087407     12.55127117     -6.19242414
  O      1.24291261      9.58949157     -6.18831295
  O      1.24441005     15.50623474     -6.18118684
  O      7.75313584      0.71934483     -6.18526678
  O     14.41859379      0.72195880     -6.18694327
  O      7.83046563      3.64396538     -6.19141794
  O     14.34234357      3.65447390     -6.19246203
  O      7.75205245      6.62230557     -6.19408800
  O     14.42223371      6.61949175     -6.19834840
  O      7.75339785     12.55076102     -6.19457837
  O     14.33862573     12.56087697     -6.19719842
  O      7.82727799      9.60001139     -6.19093921
  O     14.41597948      9.59571130     -6.19876855
  O      7.75657171     15.49529594     -6.18846092
  O     14.33832771     15.52441085     -6.20041601
 Au      9.53153081      7.15391330      8.07943220
 Au     11.72426927      5.46394842      7.53755870
 Au      8.49555031     11.72996523      8.06380355
 Au     12.22620889      7.95795038      8.45014337
 Au     14.32172127      6.37977910      7.65861322
 Au      7.57773205      9.25084852      7.79883298
 Au      6.97319773      6.62416225      7.60260066
 Au     10.24723625      9.74137954      8.78436256

