#B3LYP/6-31+G(d) OPT FREQ

154, Energy =      0.00000000 au

0 1
  C      0.28952086    -10.85207564      1.58178072
  C      0.40644068     -9.47663385      1.37939324
  C     -0.73874081     -8.68663751      1.27821190
  C     -2.00087819     -9.27191020      1.37939324
  C     -2.11789878    -10.64734342      1.58178072
  C     -0.97266113    -11.43727622      1.68295208
  H      1.19234382    -11.47472661      1.66152596
  H      1.40158233     -9.01557035      1.29967437
  H     -2.90387250     -8.64942508      1.29967437
  H     -3.11289954    -11.10859932      1.66152596
  H     -1.06485193    -12.52133590      1.84246504
  C     -0.60962721     -7.16840740      1.05481334
  C     -0.50891860     -5.98418789      0.88056246
  H     -0.41920980     -4.92931370      0.72534397
  C      9.33854994      4.82691670     -3.13778799
  C      8.22992809      4.08110242     -2.73630362
  C      7.00137269      4.71049628     -2.53558602
  C      6.88127513      6.08565502     -2.73630362
  C      7.98984052      6.83155321     -3.13778799
  C      9.21836948      6.20208062     -3.33848580
  H     10.30697002      4.33065060     -3.29598190
  H      8.32495818      2.99703505     -2.57816200
  H      5.91291195      6.58214825     -2.57816200
  H      7.89504227      7.91558771     -3.29598190
  H     10.09211448      6.78993188     -3.65491822
  C      5.77768917      3.88720812     -2.09242109
  C      4.82321600      3.24504335     -1.74675244
  H      3.97299431      2.67301845     -1.43883914
  C      6.51017127     -6.10394556     -6.38066804
  C      5.58772975     -5.44892968     -5.56425706
  C      5.82590538     -4.13650673     -5.15610157
  C      6.98643883     -3.47897820     -5.56425706
  C      7.90893890     -4.13391161     -6.38066804
  C      7.67068850     -5.44634350     -6.78878327
  H      6.32230541     -7.13853166     -6.70235240
  H      4.67294466     -5.96757924     -5.24267902
  H      7.17451553     -2.44434963     -5.24267902
  H      8.82375340     -3.61547511     -6.70235240
  H      8.39773963     -5.96256587     -7.43224269
  C      4.80766723     -3.41353514     -4.25493396
  C      4.01344146     -2.84961729     -3.55202321
  H      3.30596429     -2.34729287     -2.92588726
  C     -3.75273930     10.12248240     -1.95062638
  C     -3.42253618      8.79014151     -1.70101734
  C     -2.08493816      8.41459960     -1.57622810
  C     -1.07745374      9.37124756     -1.70101734
  C     -1.40755869     10.70361279     -1.95062638
  C     -2.74518951     11.07907683     -2.07540331
  H     -4.80720708     10.41840044     -2.04897798
  H     -4.21702275      8.03624099     -1.60269824
  H     -0.02287687      9.07554073     -1.60269824
  H     -0.61326720     11.45764913     -2.04897798
  H     -3.00540248     12.12917923     -2.27213424
  C     -1.72050881      6.94392679     -1.30070561
  C     -1.43625391      5.79680198     -1.08579806
  H     -1.18304649      4.77497085     -0.89436360
  C     -3.46915925     -3.43306484      9.82509058
  C     -3.15776847     -2.91428765      8.56796010
  C     -1.96631653     -3.27652697      7.93947185
  C     -1.08617387     -4.15750594      8.56796010
  C     -1.39747793     -4.67633517      9.82509058
  C     -2.58895788     -4.31404425     10.45351684
  H     -4.40841394     -3.14743586     10.32042838
  H     -3.85184223     -2.21980526      8.07278602
  H     -0.14682537     -4.44328311      8.07278602
  H     -0.70357907     -5.37080450     10.32042838
  H     -2.83434830     -4.72294225     11.44433211
  C     -1.62264622     -2.70386361      6.55183093
  C     -1.35458337     -2.25718619      5.46947099
  H     -1.11579945     -1.85929671      4.50533086
  C    -10.90955806      0.16075983     -1.14415099
  C     -9.52851227      0.29399555     -0.99775492
  C     -8.72202953     -0.84178678     -0.92456585
  C     -9.29641857     -2.11083884     -0.99775492
  C    -10.67745465     -2.24417523     -1.14415099
  C    -11.48387414     -1.10833599     -1.21733284
  H    -11.54520557      1.05617464     -1.20183434
  H     -9.07603206      1.29458440     -0.94009062
  H     -8.66093586     -3.00642697     -0.94009062
  H    -11.13012976     -3.24462547     -1.20183434
  H    -12.57235019     -1.21338623     -1.33271581
  C     -7.19761426     -0.69466348     -0.76297150
  C     -6.00857033     -0.57990730     -0.63692791
  H     -4.94939866     -0.47768527     -0.52465132
  C      0.09690396      4.05095508    -10.19480015
  C      0.23305503      3.57515971     -8.89036437
  C     -0.86020919      3.00484234     -8.23822637
  C     -2.08965643      2.91024815     -8.89036437
  C     -2.22590474      3.38601569    -10.19480015
  C     -1.13258518      3.95632351    -10.84687382
  H      0.95879969      4.50051715    -10.70877730
  H      1.20241518      3.64988959     -8.37655710
  H     -2.95172053      2.46070492     -8.37655710
  H     -3.19513198      3.31139089    -10.70877730
  H     -1.23993182      4.33131364    -11.87497305
  C     -0.70986977      2.47966710     -6.79836911
  C     -0.59260502      2.07003040     -5.67528043
  H     -0.48814841      1.70513590     -4.67486010
  C     -5.22012485     -5.70948640     -7.77852219
  C     -4.68112768     -4.89377638     -6.78324823
  C     -3.40379433     -5.15186580     -6.28567220
  C     -2.66534994     -6.22559319     -6.78324823
  C     -3.20426272     -7.04135896     -7.77852219
  C     -4.48161169     -6.78320145     -8.27604914
  H     -6.22706028     -5.50593282     -8.17068261
  H     -5.26354317     -4.04740436     -6.39121743
  H     -1.65835396     -6.42933938     -6.39121743
  H     -2.62204815     -7.88775084     -8.17068261
  H     -4.90639242     -7.42613038     -9.06048055
  C     -2.80888713     -4.25144114     -5.18707274
  C     -2.34485951     -3.54910990     -4.33016514
  H     -1.93151489     -2.92349016     -3.56685251
  C      8.24991945     -5.24000558      4.98343172
  C      7.12824477     -4.70921572      4.34579620
  C      7.08412968     -3.35193662      4.02701748
  C      8.16157351     -2.52533668      4.34579620
  C      9.28329145     -3.05603513      4.98343172
  C      9.32732960     -4.41333376      5.30217899
  H      8.28457780     -6.30996758      5.23467452
  H      6.27903482     -5.36113810      4.09463644
  H      8.12712826     -1.45530217      4.09463644
  H     10.13258046     -2.40432350      5.23467452
  H     10.21140157     -4.83164309      5.80473543
  C      5.84598319     -2.76609266      3.32318510
  C      4.88022890     -2.30913436      2.77419583
  H      4.01995827     -1.90208692      2.28516942
  C     -7.60332811      4.34991023      6.60460476
  C     -6.72497571      3.67108924      5.75951886
  C     -5.54712998      4.28749265      5.33702766
  C     -5.24749814      5.58267391      5.75951886
  C     -6.12578869      6.26157492      6.60460476
  C     -7.30362203      5.64509802      7.02705428
  H     -8.53179558      3.86389239      6.93758768
  H     -6.96149640      2.65006271      5.42664599
  H     -4.31904923      6.06890413      5.42664599
  H     -5.88947820      7.28256588      6.93758768
  H     -7.99587660      6.18014657      7.69311402
  C     -4.57762456      3.53815493      4.40420821
  C     -3.82141032      2.95367149      3.67660903
  H     -3.14779291      2.43302774      3.02848121
  C      3.65562350      6.97892732      7.63443260
  C      3.06360937      6.17780364      6.65760551
  C      3.73909988      5.05932443      6.16925178
  C      5.00657267      4.74184071      6.65760551
  C      5.59866813      5.54290428      7.63443260
  C      4.92310776      6.66137404      8.12273816
  H      3.12303330      7.86060112      8.01932454
  H      2.06440434      6.42837695      6.27284079
  H      5.53936598      3.86017811      6.27284079
  H      6.59782425      5.29252842      8.01932454
  H      5.38973945      7.29276099      8.89263055
  C      3.08558024      4.17506436      5.09101427
  C      2.57583491      3.48534150      4.24998900
  H      2.12176606      2.87095300      3.50082396

