#B3LYP/6-31+G(d) OPT FREQ

154, Energy =      0.00000000 au

0 1
  C      3.94266209     -6.90160901     -7.56151251
  C      3.58245521     -5.96317564     -6.59400807
  C      2.27459702     -5.92683551     -6.11031509
  C      1.32685439     -6.82883193     -6.59400807
  C      1.68696684     -7.76730154     -7.56151251
  C      2.99485448     -7.80357727     -8.04515777
  H      4.97368109     -6.93015752     -7.94273111
  H      4.32984532     -5.25224806     -6.21291546
  H      0.29573600     -6.80046177     -6.21291546
  H      0.93976992     -8.47829519     -7.94273111
  H      3.27871658     -8.54322369     -8.80770246
  C      1.87704697     -4.89095761     -5.04236807
  C      1.56695793     -4.08297283     -4.20936938
  H      1.29073808     -3.36323947     -3.46735423
  C     -3.20869611      0.37375106    -10.48416623
  C     -2.87210848      0.19026682     -9.14270682
  C     -2.12551688      1.15908331     -8.47205927
  C     -1.71544748      2.31140596     -9.14270682
  C     -2.05198668      2.49497899    -10.48416623
  C     -2.79858589      1.52610906    -11.15474763
  H     -3.79723988     -0.39004065    -11.01273153
  H     -3.19554392     -0.71826741     -8.61431622
  H     -1.12687252      3.07535913     -8.61431622
  H     -1.72867009      3.40339955    -11.01273153
  H     -3.06385046      1.67075830    -12.21202726
  C     -1.75401275      0.95650143     -6.99133473
  C     -1.46423953      0.79848757     -5.83636956
  H     -1.20611652      0.65773263     -4.80755443
  C     -1.18399449    -10.64275323      2.38395052
  C     -1.18701546     -9.28134872      2.07892648
  C      0.01945001     -8.59800445      1.92643314
  C      1.22898665     -9.27589784      2.07892648
  C      1.23210876    -10.63730212      2.38395052
  C      0.02559257    -11.32057937      2.53642882
  H     -2.13511883    -11.18132592      2.50413688
  H     -2.14071660     -8.74725091      1.95877984
  H      2.18026808     -8.73750209      1.95877984
  H      2.18565361    -11.17157758      2.50413688
  H      0.02801342    -12.39357877      2.77683543
  C      0.01605959     -7.09526431      1.58974268
  C      0.01341507     -5.92312697      1.32712412
  H      0.01105939     -4.87901529      1.09318983
  C     -8.56479684     -6.84790131     -0.32249105
  C     -7.38630767     -6.10229262     -0.28123576
  C     -7.44295510     -4.70868643     -0.26061064
  C     -8.67797439     -4.06055488     -0.28123576
  C     -9.85651763     -4.80607810     -0.32249105
  C     -9.79978505     -6.19969026     -0.34311413
  H     -8.52001238     -7.94647899     -0.33874656
  H     -6.41286893     -6.61356016     -0.26498562
  H     -8.72299609     -2.96194187     -0.26498562
  H    -10.83002608     -4.29504006     -0.33874656
  H    -10.72863997     -6.78731274     -0.37562974
  C     -6.14208990     -3.88571869     -0.21507239
  C     -5.12741502     -3.24380384     -0.17955255
  H     -4.22356710     -2.67200157     -0.14791233
  C      8.96761514      2.19575054     -5.92570684
  C      7.87627204      1.77081219     -5.16750591
  C      6.89231904      2.68400827     -4.78845187
  C      6.99955714      4.02213777     -5.16750591
  C      8.09086354      4.44717037     -5.92570684
  C      9.07478107      3.53390621     -6.30472349
  H      9.74320336      1.47578166     -6.22445513
  H      7.79204604      0.71584490     -4.86885636
  H      6.22405418      4.74230801     -4.86885636
  H      8.17528852      5.50204700     -6.22445513
  H      9.93491551      3.86886117     -6.90230430
  C      5.68769716      2.21490244     -3.95153744
  C      4.74809208      1.84899989     -3.29874418
  H      3.91111452      1.52306272     -2.71725167
  C     -6.62530477      4.56607221      7.45719568
  C     -5.88338446      3.86921396      6.50303958
  C     -4.68541380      4.40127705      6.02601996
  C     -4.22923797      5.63014988      6.50303958
  C     -4.97108904      6.32708184      7.45719568
  C     -6.16905773      5.79494753      7.93416825
  H     -7.56965245      4.14654262      7.83315474
  H     -6.24329659      2.90047612      6.12720478
  H     -3.28487963      6.04988443      6.12720478
  H     -4.61138079      7.29579624      7.83315474
  H     -6.75377959      6.34420977      8.68619236
  C     -3.86650840      3.63203299      4.97280705
  C     -3.22776217      3.03202262      4.15130097
  H     -2.65878244      2.49754784      3.41952315
  C    -10.00963592      3.57592573     -2.71538940
  C     -8.79707663      2.97972078     -2.36795500
  C     -7.65782354      3.76566268     -2.19425908
  C     -7.73095892      5.14778188     -2.36795500
  C     -8.94347357      5.74407759     -2.71538940
  C    -10.08268919      4.95806091     -2.88906819
  H    -10.90764290      2.95626010     -2.85228640
  H     -8.73977676      1.89011999     -2.23110325
  H     -6.83304071      5.76766578     -2.23110325
  H     -9.00100050      6.83361542     -2.85228640
  H    -11.03835779      5.42799935     -3.16290078
  C     -6.31940566      3.10751194     -1.81075538
  C     -5.27543969      2.59415435     -1.51162250
  H     -4.34549998      2.13686779     -1.24516213
  C      5.50817527      6.96077019      6.44679036
  C      4.69640434      6.18161719      5.62191485
  C      5.12701103      4.92055130      5.20952761
  C      6.36932424      4.43850649      5.62191485
  C      7.18116520      5.21758652      6.44679036
  C      6.75048346      6.47865047      6.85913692
  H      5.16861712      7.95485537      6.77180994
  H      3.71710366      6.56193789      5.29700270
  H      6.70909660      3.44440972      5.29700270
  H      8.16046310      4.83748033      6.77180994
  H      7.39031340      7.09271603      7.50926772
  C      4.23092652      4.06054992      4.29901672
  C      3.53198059      3.38974883      3.58881820
  H      2.90937641      2.79221540      2.95619049
  C      9.19244573     -5.36399466      2.66081572
  C      7.95402640     -4.81910277      2.32040211
  C      7.82134154     -3.44098666      2.15021615
  C      8.92694469     -2.60764942      2.32040211
  C     10.16540475     -3.15244874      2.66081572
  C     10.29800817     -4.53058427      2.83098489
  H      9.29691607     -6.45038213      2.79494637
  H      7.08264851     -5.47634168      2.18631579
  H      8.82269873     -1.52118949      2.18631579
  H     11.03688083     -2.49542421      2.79494637
  H     11.27409217     -4.96000774      3.09928401
  C      6.45433182     -2.83957730      1.77446211
  C      5.38806421     -2.37047798      1.48137395
  H      4.43825874     -1.95261562      1.22029809
  C      1.62884444     10.60080201     -2.30722482
  C      1.57483240      9.23830294     -2.01201301
  C      0.34079710      8.60494107     -1.86442518
  C     -0.83928329      9.33391339     -2.01201301
  C     -0.78537231     10.69641646     -2.30722482
  C      0.44871086     11.32970915     -2.45479809
  H      2.60169751     11.09997068     -2.42354494
  H      2.50532495      8.66393046     -1.89573134
  H     -1.81228590      8.83492836     -1.89573134
  H     -1.71570126     11.27096018     -2.42354494
  H      0.49124096     12.40357290     -2.68747113
  C      0.28123351      7.10099039     -1.53856562
  C      0.23477391      5.92790884     -1.28439516
  H      0.19338882      4.88295608     -1.05798624
  C     -1.55228955     -3.19495353     10.37969984
  C     -1.50745280     -2.76996428      9.05160163
  C     -0.28371040     -2.68409300      8.38763386
  C      0.89525103     -3.02316422      9.05160163
  C      0.85051486     -3.44816407     10.37969984
  C     -0.37327562     -3.53400909     11.04360212
  H     -2.51702914     -3.26260516     10.90300052
  H     -2.43706029     -2.50273994      8.52847391
  H      1.86014061     -2.95558436      8.52847391
  H      1.77996069     -3.71542733     10.90300052
  H     -0.40857435     -3.86897120     12.09035103
  C     -0.23427438     -2.21497716      6.92165763
  C     -0.19571429     -1.84906680      5.77819615
  H     -0.16136589     -1.52312267      4.75962822

