#B3LYP/6-31+G(d) OPT FREQ

154, Energy =      0.00000000 au

0 1
  C      2.45856909     10.68194729     -0.45266285
  C      1.99814306      9.36622513     -0.39474830
  C      2.90812543      8.30940617     -0.36579457
  C      4.27852516      8.56813152     -0.39474830
  C      4.73904665      9.88382028     -0.45266285
  C      3.82899384     10.94059106     -0.48161372
  H      1.74112996     11.51495580     -0.47548249
  H      0.91774189      9.16262141     -0.37193620
  H      4.99617215      7.73524260     -0.37193620
  H      5.81935989     10.08764709     -0.47548249
  H      4.19191911     11.97757256     -0.52725943
  C      2.39984707      6.85710925     -0.30186755
  C      2.00338993      5.72431763     -0.25200448
  H      1.65023548      4.71525416     -0.20758766
  C      9.25206826      1.43707406     -5.71728262
  C      8.06443462      1.40766164     -4.98575524
  C      7.50054624      0.18534739     -4.62003636
  C      8.12414727     -1.00760859     -4.98575524
  C      9.31178341     -0.97829729     -5.71728262
  C      9.87561198      0.24406607     -6.08296543
  H      9.69648581      2.40068940     -6.00552092
  H      7.57309304      2.34829898     -4.69761221
  H      7.67988825     -1.97137675     -4.69761221
  H      9.80327578     -1.91877416     -6.00552092
  H     10.81165385      0.26720780     -6.65952331
  C      6.18961568      0.15293730     -3.81256464
  C      5.16708983      0.12765742     -3.18273668
  H      4.25624846      0.10513872     -2.62170113
  C     -8.89735969      5.48635037     -3.33023443
  C     -7.85469724      4.66308944     -2.90412705
  C     -6.58481701      5.19955563     -2.69109946
  C     -6.35744018      6.55922161     -2.90412705
  C     -7.40003995      7.38256191     -3.33023443
  C     -8.66990011      6.84601543     -3.54324101
  H     -9.89836551      5.06333604     -3.49813036
  H     -8.03429554      3.59126128     -2.73628661
  H     -5.35647304      6.98246613     -2.73628661
  H     -7.22067453      8.45437431     -3.49813036
  H     -9.49165634      7.49490497     -3.87908021
  C     -5.43394396      4.29078312     -2.22075525
  C     -4.53626297      3.58194055     -1.85388677
  H     -3.73663039      2.95052068     -1.52708917
  C      8.02710891     -7.46217720      0.48463573
  C      7.11707336     -6.40649678      0.42262627
  C      5.74713301     -6.66740848      0.39162533
  C      5.28707844     -7.98390431      0.42262627
  C      6.19703739     -9.03965077      0.48463573
  C      7.56697117     -8.77865400      0.51563361
  H      9.10701190     -7.25637298      0.50906886
  H      7.48009461     -5.36877786      0.39820121
  H      4.20717528     -8.18994832      0.39820121
  H      5.83425333    -10.07740487      0.50906886
  H      8.28419120     -9.61072116      0.56450676
  C      4.74266336     -5.50209494      0.32317828
  C      3.95917702     -4.59315037      0.26978958
  H      3.26126628     -3.78348445      0.22223221
  C     -4.24772451     -5.00871319     -8.78768043
  C     -3.83845336     -4.29127734     -7.66328994
  C     -2.58455104     -4.53110115     -7.10116356
  C     -1.73982584     -5.48829799     -7.66328994
  C     -2.14900914     -6.20578395     -8.78768043
  C     -3.40293520     -5.96589970     -9.34975137
  H     -5.23620183     -4.81956991     -9.23071567
  H     -4.50463054     -3.53675828     -7.22040113
  H     -0.75126570     -5.67761233     -7.22040113
  H     -1.48302135     -6.96031882     -9.23071567
  H     -3.72547020     -6.53137100    -10.23594677
  C     -2.13283943     -3.73915623     -5.86004319
  C     -1.78050436     -3.12143918     -4.89196929
  H     -1.46665277     -2.57119172     -4.02963239
  C      1.45732221      4.45491417     -9.91882335
  C      1.42512811      3.87632693     -8.64970106
  C      0.20291401      3.65407476     -8.01521764
  C     -0.98716042      4.01034178     -8.64970106
  C     -0.95506730      4.58893464     -9.91882335
  C      0.26719571      4.81115547    -10.55324419
  H      2.42085830      4.63006603    -10.41888619
  H      2.36349422      3.59559035     -8.14980350
  H     -1.95084877      3.83527397     -8.14980350
  H     -1.89327277      4.86973788    -10.41888619
  H      0.29252989      5.26717484    -11.55351086
  C      0.16743337      3.01541773     -6.61433998
  C      0.13975848      2.51726523     -5.52165538
  H      0.11510635      2.07352300     -4.54831829
  C     -4.67739712     -9.88250320      0.90082550
  C     -4.22502868     -8.56776099      0.78555728
  C     -2.85660224     -8.30344917      0.72793023
  C     -1.94044102     -9.35373497      0.78555728
  C     -2.39271381    -10.66851008      0.90082550
  C     -3.76116577    -10.93274062      0.95844686
  H     -5.75615558    -10.09073424      0.94624378
  H     -4.94754515     -7.74002307      0.74015401
  H     -0.86159329     -9.14572612      0.74015401
  H     -1.67040442    -11.49636824      0.94624378
  H     -4.11766509    -11.96897589      1.04929623
  C     -2.35732345     -6.85219734      0.60069532
  C     -1.96788598     -5.72022089      0.50145208
  H     -1.62098448     -4.71188356      0.41304860
  C      1.11784480     -4.16009446     10.08946707
  C      1.12929900     -3.63116577      8.79850840
  C     -0.07266780     -3.34046516      8.15310813
  C     -1.28613794     -3.57862737      8.79850840
  C     -1.29769326     -4.10755386     10.08946707
  C     -0.09567533     -4.39822948     10.73480368
  H      2.06542349     -4.38921335     10.59813393
  H      2.08609911     -3.44353812      8.29000965
  H     -2.23387478     -3.34957395      8.29000965
  H     -2.25433821     -4.29525380     10.59813393
  H     -0.10474288     -4.81510707     11.75228084
  C     -0.05996867     -2.75662635      6.72812712
  C     -0.05006334     -2.30123207      5.61664191
  H     -0.04123992     -1.89557782      4.62655768
  C      8.91722899      1.22387673      6.27204906
  C      7.81761570      0.91839686      5.46955066
  C      6.94448550      1.92956188      5.06835060
  C      7.17082038      3.24621810      5.46955066
  C      8.27040660      3.55179542      6.27204906
  C      9.14349611      2.54056660      6.67320954
  H      9.60544854      0.42668626      6.58825155
  H      7.63948612     -0.11967514      5.15345268
  H      6.48270209      4.04359933      5.15345268
  H      8.44872133      4.58975624      6.58825155
  H     10.01015255      2.78137089      7.30570368
  C      5.73072955      1.59231448      4.18253992
  C      4.78399988      1.32926150      3.49160757
  H      3.94067592      1.09494025      2.87614169
  C    -10.08316838     -3.23088597      2.87124226
  C     -8.76296162     -2.96903612      2.50387349
  C     -8.33790717     -1.65322095      2.32021160
  C     -9.23290761     -0.59917396      2.50387349
  C    -10.55313404     -0.86092459      2.87124226
  C    -10.97811355     -2.17677646      3.05488603
  H    -10.41812122     -4.26818842      3.01599385
  H     -8.05766561     -3.80021596      2.35916974
  H     -8.89815718      0.43824811      2.35916974
  H    -11.25857150     -0.02993255      3.01599385
  H    -12.01865053     -2.38311596      3.34443002
  C     -6.88063078     -1.36424162      1.91470403
  C     -5.74395518     -1.13883774      1.59840811
  H     -4.73143196     -0.93805339      1.31665934
  C     -2.35251607      7.21938128      7.91833504
  C     -1.91407295      6.36630609      6.90517099
  C     -2.76923401      5.38757752      6.39865101
  C     -4.06282946      5.26179653      6.90517099
  C     -4.50136254      6.11482548      7.91833504
  C     -3.64613488      7.09353511      8.42480506
  H     -1.67829799      7.99087630      8.31754455
  H     -0.89422419      6.46574028      6.50609342
  H     -4.73724400      4.49034098      6.50609342
  H     -5.52112904      6.01557402      8.31754455
  H     -3.99173202      7.76587344      9.22333664
  C     -2.28522376      4.44596488      5.28030419
  C     -1.90769577      3.71150701      4.40799364
  H     -1.57140293      3.05726964      3.63096044

