#B3LYP/6-31+G(d) OPT FREQ

154, Energy =      0.00000000 au

0 1
  C      0.18674612     -1.20938342    -10.90223020
  C      0.16270963     -1.20930632     -9.50727741
  C      0.15202633     -0.00128966     -8.80988645
  C      0.16537663      1.20670047     -9.50727741
  C      0.18941324      1.20672451    -10.90223020
  C      0.20009530     -0.00134272    -11.59955238
  H      0.19516579     -2.16173032    -11.45187310
  H      0.15219036     -2.16178900     -8.95781618
  H      0.15696027      2.15920405     -8.95781618
  H      0.19993546      2.15905049    -11.45187310
  H      0.21903986     -0.00136363    -12.69899315
  C      0.12549440     -0.00126037     -7.27011505
  C      0.10479949     -0.00123753     -6.06909333
  H      0.08636496     -0.00121718     -4.99925215
  C     -1.46390746      9.91061207      4.47103915
  C     -1.12757595      8.68338765      3.89896191
  C     -2.12443775      7.75052054      3.61295832
  C     -3.45763864      8.04471417      3.89896191
  C     -3.79406769      9.27191186      4.47103915
  C     -2.79714053     10.20473182      4.75701453
  H     -0.67798972     10.64591189      4.69645050
  H     -0.07646804      8.45179098      3.67362506
  H     -4.24375130      7.30953275      3.67362506
  H     -4.84506829      9.50370977      4.69645050
  H     -3.06226076     11.17196589      5.20790079
  C     -1.75313577      6.39590517      2.98149023
  C     -1.46352021      5.33930517      2.48894510
  H     -1.20553766      4.39811136      2.05019778
  C     -1.06952475     -0.83452754     10.88636829
  C     -0.99793200     -0.86782465      9.49344445
  C     -0.45201985      0.21051299      8.79706784
  C      0.02232969      1.32218950      9.49344445
  C     -0.04922035      1.35557830     10.88636829
  C     -0.59515033      0.27719317     11.58267622
  H     -1.49989009     -1.68464480     11.43521174
  H     -1.37197134     -1.74435536      8.94478241
  H      0.45275187      2.17245314      8.94478241
  H      0.32474350      2.23197132     11.43521174
  H     -0.65155977      0.30347263     12.68051786
  C     -0.37301819      0.17370849      7.25953603
  C     -0.31139690      0.14500099      6.06026119
  H     -0.25650614      0.11942903      4.99197608
  C     -5.33052342     -7.77123167     -5.61666037
  C     -4.53330933     -6.87991093     -4.89800325
  C     -5.03509504     -5.62895199     -4.53871870
  C     -6.33403489     -5.26917092     -4.89800325
  C     -7.13132437     -6.16042424     -5.61666037
  C     -6.62946165     -7.41137293     -5.97590948
  H     -4.93485244     -8.75733697     -5.89982750
  H     -3.50935497     -7.16386233     -4.61492970
  H     -6.72992648     -4.28307723     -4.61492970
  H     -8.15526576     -5.87669337     -5.89982750
  H     -7.25782063     -8.11384638     -6.54232359
  C     -4.15507565     -4.64513499     -3.74545337
  C     -3.46866051     -3.87775771     -3.12670640
  H     -2.85721846     -3.19419653     -2.57554152
  C     -9.83156280     -2.18865764      4.34781759
  C     -8.55836091     -2.06238504      3.79150544
  C     -8.04100949     -0.79717035      3.51338342
  C     -8.79670901      0.34183752      3.79150544
  C    -10.06992088      0.21566556      4.34781759
  C    -10.58720452     -1.04959322      4.62591217
  H    -10.23928351     -3.18608342      4.56701715
  H     -7.96288745     -2.96051433      3.57237833
  H     -8.38916956      1.33940279      3.57237833
  H    -10.66554469      1.11362249      4.56701715
  H    -11.59069049     -1.14907610      5.06437308
  C     -6.63562319     -0.65784417      2.89931709
  C     -5.53942186     -0.54916974      2.42034533
  H     -4.56295213     -0.45236519      1.99368884
  C     -8.67572368      4.59305343     -4.89787801
  C     -7.65420336      3.87873439     -4.27120777
  C     -6.45121996      4.51154451     -3.95791103
  C     -6.26960280      5.85862762     -4.27120777
  C     -7.29106515      6.57302954     -4.89787801
  C     -8.49402716      5.94014275     -5.21114385
  H     -9.62399325      4.09409747     -5.14480023
  H     -7.79771444      2.81679473     -4.02436716
  H     -5.32137646      6.35780502     -4.02436716
  H     -7.14777689      7.63493382     -5.14480023
  H     -9.29912195      6.50317043     -5.70505792
  C     -5.32368134      3.72302189     -3.26618231
  C     -4.44420119      3.10797423     -2.72663390
  H     -3.66078148      2.56010460     -2.24601718
  C      5.45631282      7.81157104     -5.43704478
  C      4.89504683      6.74036266     -4.74136946
  C      3.54442341      6.76541289     -4.39357441
  C      2.75495244      7.86156375     -4.74136946
  C      3.31612883      8.93281907     -5.43704478
  C      4.66676938      8.90769255     -5.78480553
  H      6.52102452      7.79170790     -5.71115656
  H      5.51770277      5.87638724     -4.46734828
  H      1.69017503      7.88163911     -4.46734828
  H      2.69368478      9.79686128     -5.71115656
  H      5.10909937      9.75199064     -6.33310638
  C      2.92493841      5.58296988     -3.62567677
  C      2.44174009      4.66066433     -3.02671660
  H      2.01131868      3.83909677     -2.49317732
  C      9.37446539      4.20384049      3.84712869
  C      8.25435609      3.53337488      3.35488684
  C      7.07391885      4.23464502      3.10879606
  C      7.01342776      5.60634203      3.35488684
  C      8.13348512      6.27689442      3.84712869
  C      9.31389309      5.57554783      4.09319520
  H     10.30495002      3.65091838      4.04108310
  H      8.30239081      2.45201427      3.16099654
  H      6.08300852      6.15948590      3.16099654
  H      8.08567675      7.35820791      4.04108310
  H     10.19669378      6.10401370      4.48115870
  C      5.83755279      3.49452636      2.56545155
  C      4.87318725      2.91723379      2.14164283
  H      4.01415367      2.40299550      1.76412424
  C     -3.05186675     -9.87851247      3.66806178
  C     -2.81333865     -8.58649842      3.19872706
  C     -1.50617629     -8.15983248      2.96408844
  C     -0.43746309     -9.02503151      3.19872706
  C     -0.67589174    -10.31706392      3.66806178
  C     -1.98309206    -10.74365697      3.90267726
  H     -4.08235021    -10.21473876      3.85299026
  H     -3.65607552     -7.90469187      3.01385970
  H      0.59314340     -8.68900193      3.01385970
  H      0.16665999    -10.99901029      3.85299026
  H     -2.17105029    -11.76197317      4.27258636
  C     -1.24294001     -6.73367639      2.44602920
  C     -1.03761571     -5.62127462      2.04194298
  H     -0.85471778     -4.63037394      1.68199272
  C      7.10760299     -6.32618954     -5.46028608
  C      6.11093070     -5.64428506     -4.76162903
  C      6.29472018     -4.30637869     -4.41234329
  C      7.47508843     -3.65025156     -4.76162903
  C      8.47181782     -4.33207256     -5.46028608
  C      8.28795063     -5.66998704     -5.80953736
  H      6.96260482     -7.38086276     -5.73557273
  H      5.18052859     -6.16183777     -4.48643336
  H      7.62030486     -2.59553781     -4.48643336
  H      9.40226126     -3.81473797     -5.73557273
  H      9.07350664     -6.20740142     -6.36018829
  C      5.19454571     -3.55372760     -3.64115436
  C      4.33640960     -2.96665973     -3.03962698
  H      3.57200265     -2.44371382     -2.50380090
  C      7.11365639     -6.45541621      5.29878667
  C      6.11482918     -5.75602035      4.62080386
  C      6.30831024     -4.41682261      4.28185397
  C      7.50052517     -3.77689364      4.62080386
  C      8.49941038     -4.47620664      5.29878667
  C      8.30585106     -5.81541132      5.63770312
  H      6.96101758     -7.51110562      5.56592721
  H      5.17508679     -6.26080632      4.35375161
  H      7.65338392     -2.72116694      4.35375161
  H      9.43919299     -3.97164010      5.56592721
  H      9.09310583     -6.36661189      6.17205952
  C      5.20575664     -3.64486390      3.53348560
  C      4.34576481     -3.04273610      2.94975826
  H      3.57970483     -2.50637517      2.42978802

