#B3LYP/6-31+G(d) OPT FREQ

154, Energy =      0.00000000 au

0 1
  C      5.32430497     -6.61851937     -6.94265975
  C      4.77600727     -5.69292287     -6.05434011
  C      3.46254867     -5.84579348     -5.61023468
  C      2.69727710     -6.92417298     -6.05434011
  C      3.24548778     -7.84982102     -6.94265975
  C      4.55896286     -7.69687900     -7.38672137
  H      6.35971895     -6.49790389     -7.29267775
  H      5.37957841     -4.84291593     -5.70443779
  H      1.66179970     -7.04498886     -5.70443779
  H      2.64212286     -8.69986866     -7.29267775
  H      4.99107283     -8.42641399     -8.08685606
  C      2.85737685     -4.82407668     -4.62969312
  C      2.38534282     -4.02713755     -3.86487069
  H      1.96486628     -3.31724340     -3.18358531
  C      6.24142923      2.08801331      8.77713547
  C      5.51791252      1.68579710      7.65409642
  C      4.56919491      2.54047862      7.09264566
  C      4.34388083      3.79737128      7.65409642
  C      5.06734839      4.19967588      8.77713547
  C      6.01605489      3.34493033      9.33853085
  H      6.98927879      1.41417716      9.21963822
  H      5.69578796      0.69487701      7.21173992
  H      3.59604934      4.47139676      7.21173992
  H      4.88964331      5.19051141      9.21963822
  H      6.58627975      3.66197439     10.22366111
  C      3.77059262      2.09645708      5.85301702
  C      3.14768281      1.75012028      4.88610667
  H      2.59280978      1.44161181      4.02480623
  C     -7.50635096      3.78504450      7.04851349
  C     -6.63458013      3.17420228      6.14664963
  C     -5.50551181      3.85807908      5.69577293
  C     -5.24807854      5.15276470      6.14664963
  C     -6.11979134      5.76368975      7.04851349
  C     -7.24884568      5.07974141      7.49934572
  H     -8.39636518      3.24584090      7.40386822
  H     -6.83782587      2.15354602      5.79141235
  H     -4.35808793      5.69217618      5.79141235
  H     -5.91674904      6.78429725      7.40386822
  H     -7.93591446      5.56121317      8.21015537
  C     -4.54326913      3.18377587      4.70028104
  C     -3.79271982      2.65781935      3.92379735
  H     -3.12414859      2.18930996      3.23212441
  C     10.86681135      0.38618073     -1.45489434
  C      9.49900154      0.18390978     -1.26873901
  C      8.63842322      1.27776360     -1.17567274
  C      9.14547979      2.57391361     -1.26873901
  C     10.51327481      2.77628461     -1.45489434
  C     11.37379307      1.68237079     -1.54795143
  H     11.54510685     -0.47618688     -1.52824375
  H      9.09960801     -0.83802455     -1.19541385
  H      8.46733950      3.43646257     -1.19541385
  H     10.91286939      3.79809029     -1.52824375
  H     12.45183511      1.84183133     -1.69467092
  C      7.12862084      1.05443844     -0.97019148
  C      5.95097496      0.88024482     -0.80991610
  H      4.90195640      0.72507734     -0.66714665
  C     -8.65452702     -6.73390059      0.32740597
  C     -7.65491840     -5.76153299      0.28551466
  C     -6.31285380     -6.14126518      0.26457156
  C     -5.97024013     -7.49328212      0.28551466
  C     -6.96977823     -8.46572222      0.32740597
  C     -8.31182880     -8.08590583      0.34834700
  H     -9.71244441     -6.43443246      0.34391210
  H     -7.92536627     -4.69578103      0.26901399
  H     -4.91234365     -7.79298920      0.26901399
  H     -6.69956979     -9.53148850      0.34391210
  H     -9.09964880     -8.85231201      0.38136390
  C     -5.20950859     -5.06791012      0.21833125
  C     -4.34889931     -4.23069315      0.18226381
  H     -3.58228931     -3.48492046      0.15013580
  C     -9.12543954      4.99062755     -3.48906390
  C     -8.04722739      4.22602368     -3.04262183
  C     -6.80938742      4.82910687     -2.81942814
  C     -6.64959829      6.19674152     -3.04262183
  C     -7.72775193      6.96142790     -3.48906390
  C     -8.96556799      6.35826575     -3.71223558
  H    -10.10118243      4.51510161     -3.66497216
  H     -8.17354452      3.14789462     -2.86677171
  H     -5.67390517      6.67249486     -2.86677171
  H     -7.60166586      8.03952873     -3.66497216
  H     -9.81534458      6.96092559     -4.06410169
  C     -5.61927175      3.98507924     -2.32663817
  C     -4.69098150      3.32673768     -1.94226200
  H     -3.86408293      2.74030289     -1.59986897
  C     -5.97701938     -1.78204592     -9.02513308
  C     -5.28425466     -1.41730280     -7.87035581
  C     -4.37507665     -2.30379697     -7.29303790
  C     -4.15855495     -3.55503433     -7.87035581
  C     -4.85127255     -3.91986694     -9.02513308
  C     -5.76043996     -3.03331003     -9.60239405
  H     -6.69370096     -1.08313409     -9.48014140
  H     -5.45518814     -0.43083052     -7.41549788
  H     -3.44189057     -4.25413231     -7.41549788
  H     -4.68050228     -4.90624808     -9.48014140
  H     -6.30642824     -3.32081987    -10.51253898
  C     -3.61041778     -1.90113824     -6.01837611
  C     -3.01398384     -1.58706443     -5.02413990
  H     -2.48269488     -1.30729504     -4.13849826
  C     -3.67120054     -4.38735761      9.36094794
  C     -3.33826829     -3.75407952      8.16320589
  C     -2.10256158     -3.99952361      7.56440821
  C     -1.19970157     -4.87819175      8.16320589
  C     -1.53254429     -5.51151690      9.36094794
  C     -2.76827936     -5.26601805      9.95968655
  H     -4.64534143     -4.19379257      9.83288535
  H     -4.05026086     -3.06145377      7.69142445
  H     -0.22546534     -5.07191216      7.69142445
  H     -0.82073378     -6.20415221      9.83288535
  H     -3.03064671     -5.76515869     10.90369444
  C     -1.73511500     -3.30047506      6.24232121
  C     -1.44850666     -2.75521718      5.21109333
  H     -1.19320287     -2.26951461      4.29250039
  C      1.85881139      5.78205955     -9.13596811
  C      1.48621544      5.11784271     -7.96701161
  C      2.35344052      4.19471647     -7.38260495
  C      3.59326001      3.93570097     -7.96701161
  C      3.96594416      4.59986831     -9.13596811
  C      3.09865661      5.52298655     -9.72031713
  H      1.17508962      6.50974036     -9.59656337
  H      0.50874835      5.32227332     -7.50656859
  H      4.27716696      3.20802998     -7.50656859
  H      4.94332312      4.39560087     -9.59656337
  H      3.39235520      6.04647370    -10.64163751
  C      1.94211441      3.46157052     -6.09229190
  C      1.62128004      2.88971667     -5.08584771
  H      1.33548853      2.38032304     -4.18933148
  C      6.88514281     -7.74771914      3.59461864
  C      6.13087049     -6.66790301      3.13468232
  C      4.76345069     -6.81976891      2.90474232
  C      4.15016938     -8.05134765      3.13468232
  C      4.90435879     -9.13122170      3.59461864
  C      6.27178285     -8.97927358      3.82453595
  H      7.96307536     -7.62787922      3.77584394
  H      6.61466174     -5.69714729      2.95351691
  H      3.07220659     -8.17141792      2.95351691
  H      4.42079421    -10.10202832      3.77584394
  H      6.86623462     -9.83036025      4.18703765
  C      3.93091850     -5.62781848      2.39705718
  C      3.28154337     -4.69809711      2.00106277
  H      2.70309566     -3.86992374      1.64832049
  C      0.73616481     10.90655036      0.92665686
  C      0.48988662      9.53842723      0.80809386
  C      1.55562503      8.64039563      0.74881962
  C      2.86766123      9.11031064      0.80809386
  C      3.11403896     10.47841585      0.92665686
  C      2.04823863     11.37638894      0.98592526
  H     -0.10404258     11.61437233      0.97337337
  H     -0.54456045      9.16831937      0.76139280
  H      3.70805490      8.40263908      0.76139280
  H      4.14836390     10.84872964      0.97337337
  H      2.24238355     12.45467669      1.07937143
  C      1.28372425      7.13024913      0.61794786
  C      1.07164164      5.95233484      0.51586789
  H      0.88272357      4.90307718      0.42493751

