#B3LYP/6-31+G(d) OPT FREQ

23400, Energy = 456597.14725526 au

0 1
 C1      2.45000000      3.27000000     44.87000000
 C2      0.27000000      2.58000000     44.25000000
 C3      2.19000000      1.17000000     43.69000000
 N4      1.58000000      2.09000000     44.65000000
 C5      1.30000000      1.32000000     45.89000000
 C6      2.49000000      0.57000000     46.49000000
OS7      3.37000000      1.62000000     46.85000000
 P8      4.39000000      1.45000000     48.02000000
OM9      5.13000000      0.64000000     47.02000000
OM10      4.48000000      2.92000000     47.89000000
OS11      3.22000000      0.77000000     48.89000000
C12      2.36000000      1.63000000     49.65000000
C13      0.95000000      1.17000000     50.08000000
OS14      0.10000000      2.42000000     50.11000000
C15     99.44000000      2.99000000     49.00000000
O16     99.33000000      2.27000000     47.99000000
C17     98.96000000      4.49000000     48.82000000
C18     98.03000000      5.77000000     49.05000000
C19     97.61000000      7.09000000     49.84000000
C20     96.93000000      7.51000000     51.22000000
C21     96.27000000      7.92000000     52.60000000
C22     96.20000000      7.17000000     53.99000000
C23     95.65000000      7.54000000     55.44000000
C24     94.31000000      7.82000000     56.21000000
C25     93.98000000      8.43000000     57.41000000
C26     92.76000000      8.88000000     58.21000000
C27     92.83000000      8.88000000     59.75000000
C28     91.91000000      9.58000000     60.76000000
C29     92.16000000      9.88000000     62.26000000
C30     92.29000000      8.82000000     63.36000000
C31     91.39000000      7.61000000     63.35000000
C32     90.38000000      7.31000000     64.44000000
C33     90.93000000      6.67000000     65.69000000
C34      1.22000000     99.96000000     51.08000000
OS35      0.26000000     98.95000000     51.64000000
C36      0.51000000     98.15000000     52.78000000
O37      1.69000000     98.06000000     53.08000000
C38     99.35000000     97.73000000     53.85000000
C39     98.36000000     97.05000000     54.91000000
C40     98.44000000     96.59000000     56.44000000
C41     97.50000000     96.14000000     57.68000000
C42     96.51000000     96.69000000     58.83000000
C43     96.43000000     97.45000000     60.23000000
C44     96.56000000     98.97000000     60.71000000
C45     97.41000000     99.89000000     61.76000000
C46     97.40000000      0.97000000     62.94000000
C47     97.26000000      1.09000000     64.51000000
C48     96.38000000      0.94000000     65.80000000
C49     96.38000000     99.57000000     66.50000000
C50     95.94000000     99.16000000     67.91000000
C51     97.01000000     99.05000000     68.97000000
C52     98.03000000     97.91000000     68.94000000
 C1      7.88000000      3.25000000     45.00000000
 C2      6.85000000      1.18000000     44.61000000
 C3      9.04000000      1.63000000     43.60000000
 N4      8.15000000      1.82000000     44.75000000
 C5      8.77000000      1.12000000     45.90000000
 C6     10.13000000      1.64000000     46.40000000
OS7      9.84000000      2.91000000     46.93000000
 P8     10.26000000      3.18000000     48.43000000
OM9     11.58000000      3.31000000     47.77000000
OM10      9.23000000      4.22000000     48.38000000
OS11      9.74000000      1.71000000     48.94000000
C12      8.39000000      1.27000000     49.26000000
C13      7.87000000      0.68000000     50.60000000
OS14      7.32000000      1.79000000     51.36000000
C15      6.10000000      2.26000000     51.01000000
O16      5.35000000      1.45000000     50.51000000
C17      5.71000000      3.66000000     51.49000000
C18      4.32000000      4.21000000     51.15000000
C19      3.11000000      3.68000000     51.96000000
C20      2.46000000      4.22000000     53.25000000
C21      1.24000000      3.43000000     53.71000000
C22      0.39000000      3.83000000     54.96000000
C23     98.94000000      3.39000000     55.44000000
C24     98.47000000      2.44000000     56.55000000
C25     97.65000000      2.63000000     57.63000000
C26     97.01000000      2.11000000     58.93000000
C27     95.54000000      1.75000000     59.27000000
C28     95.15000000      1.91000000     60.77000000
C29     94.19000000      1.29000000     61.83000000
C30     94.03000000     99.82000000     62.31000000
C31     94.86000000     99.08000000     63.40000000
C32     95.30000000     97.60000000     63.40000000
C33     96.10000000     97.01000000     64.57000000
C34      8.90000000     99.68000000     51.22000000
OS35      8.86000000     99.43000000     52.64000000
C36      9.85000000     98.72000000     53.26000000
O37     11.04000000     99.03000000     53.38000000
C38      9.08000000     97.85000000     54.22000000
C39      9.79000000     97.53000000     55.51000000
C40      8.72000000     97.17000000     56.53000000
C41      9.42000000     96.60000000     57.75000000
C42      8.51000000     96.40000000     58.96000000
C43      8.50000000     97.41000000     60.13000000
C44      8.02000000     98.86000000     60.29000000
C45      8.84000000     99.86000000     61.17000000
C46      9.34000000      0.41000000     62.53000000
C47      9.66000000     99.39000000     63.65000000
C48     10.19000000     99.71000000     65.07000000
C49      9.42000000     99.72000000     66.41000000
C50      9.15000000     98.31000000     66.92000000
C51      8.71000000     98.09000000     68.37000000
C52      9.85000000     98.24000000     69.36000000
 C1     14.81000000      3.39000000     45.43000000
 C2     13.64000000      1.48000000     44.65000000
 C3     16.07000000      1.39000000     44.86000000
 N4     14.81000000      1.92000000     45.41000000
 C5     14.60000000      1.39000000     46.78000000
 C6     15.78000000      1.52000000     47.75000000
OS7     16.09000000      2.90000000     47.85000000
 P8     17.41000000      3.31000000     48.57000000
OM9     18.18000000      2.68000000     47.45000000
OM10     17.09000000      4.73000000     48.43000000
OS11     17.06000000      2.47000000     49.88000000
C12     16.03000000      2.96000000     50.76000000
C13     15.21000000      1.86000000     51.48000000
OS14     13.84000000      2.28000000     51.64000000
C15     12.90000000      1.63000000     50.92000000
O16     12.99000000      1.43000000     49.70000000
C17     11.64000000      1.54000000     51.76000000
C18     10.50000000      2.57000000     51.63000000
C19      9.58000000      3.79000000     51.76000000
C20      8.77000000      3.63000000     53.03000000
C21      7.95000000      3.50000000     54.28000000
C22      7.84000000      2.07000000     54.78000000
C23      7.48000000      2.19000000     56.25000000
C24      7.15000000      0.91000000     56.93000000
C25      6.34000000      0.74000000     57.97000000
C26      5.48000000      1.55000000     58.88000000
C27      6.23000000      1.67000000     60.20000000
C28      5.73000000      2.34000000     61.48000000
C29      4.31000000      1.97000000     61.91000000
C30      4.17000000      2.12000000     63.41000000
C31      3.66000000      1.13000000     64.46000000
C32      3.31000000     99.67000000     64.72000000
C33      2.93000000     99.39000000     66.16000000
C34     15.87000000      1.46000000     52.81000000
OS35     15.23000000      0.32000000     53.42000000
C36     16.03000000     99.23000000     53.52000000
O37     17.18000000     99.24000000     53.08000000
C38     15.27000000     97.97000000     53.90000000
C39     15.64000000     97.44000000     55.28000000
C40     14.70000000     97.91000000     56.39000000
C41     15.38000000     97.55000000     57.71000000
C42     14.41000000     97.47000000     58.88000000
C43     14.93000000     97.70000000     60.31000000
C44     14.70000000     99.14000000     60.82000000
C45     14.57000000     99.21000000     62.34000000
C46     13.85000000      0.49000000     62.76000000
C47     13.42000000      0.40000000     64.21000000
C48     14.29000000     99.42000000     64.97000000
C49     13.92000000     99.53000000     66.43000000
C50     14.26000000     98.24000000     67.16000000
C51     13.79000000     98.46000000     68.58000000
C52     14.95000000     98.35000000     69.57000000
 C1     22.64000000      2.86000000     45.47000000
 C2     20.34000000      2.91000000     44.87000000
 C3     21.63000000      0.88000000     44.48000000
 N4     21.42000000      2.05000000     45.33000000
 C5     20.94000000      1.56000000     46.65000000
 C6     21.82000000      0.49000000     47.33000000
OS7     23.00000000      1.19000000     47.66000000
 P8     24.11000000      0.63000000     48.64000000
OM9     24.42000000     99.59000000     47.62000000
OM10     24.63000000      1.98000000     48.31000000
OS11     22.97000000      0.20000000     49.68000000
C12     22.27000000      1.22000000     50.41000000
C13     20.90000000      1.00000000     51.09000000
OS14     20.18000000      2.24000000     51.46000000
C15     20.02000000      3.41000000     50.76000000
O16     20.29000000      3.53000000     49.55000000
C17     19.23000000      4.45000000     51.58000000
C18     20.02000000      5.58000000     52.28000000
C19     19.37000000      6.70000000     53.13000000
C20     20.09000000      8.03000000     53.49000000
C21     19.57000000      9.51000000     53.40000000
C22     19.79000000     10.62000000     54.49000000
C23     19.14000000     10.61000000     55.91000000
C24     19.13000000     11.75000000     56.94000000
C25     18.97000000     12.74000000     57.89000000
C26     17.83000000     13.26000000     58.74000000
C27     17.91000000     13.89000000     60.14000000
C28     17.30000000     13.27000000     61.41000000
C29     16.49000000     14.20000000     62.34000000
C30     16.84000000     14.14000000     63.84000000
C31     15.79000000     14.57000000     64.88000000
C32     16.18000000     14.45000000     66.37000000
C33     15.10000000     14.07000000     67.39000000
C34     21.29000000      0.08000000     52.27000000
OS35     20.32000000     99.79000000     53.28000000
C36     20.63000000     98.65000000     53.95000000
O37     21.69000000     98.05000000     53.75000000
C38     19.53000000     98.21000000     54.89000000
C39     19.80000000     98.80000000     56.25000000
C40     18.53000000     99.38000000     56.85000000
C41     18.92000000     99.59000000     58.29000000
C42     17.70000000     99.58000000     59.17000000
C43     18.14000000     99.25000000     60.59000000
C44     19.40000000      0.02000000     60.94000000
C45     19.57000000      0.07000000     62.45000000
C46     20.86000000      0.79000000     62.84000000
C47     20.77000000      1.28000000     64.29000000
C48     19.98000000      0.27000000     65.12000000
C49     19.50000000      0.75000000     66.49000000
C50     18.36000000     99.82000000     66.87000000
C51     17.75000000      0.12000000     68.22000000
C52     18.40000000     99.16000000     69.21000000
 C1     28.36000000      3.36000000     45.27000000
 C2     26.74000000      1.67000000     44.73000000
 C3     29.09000000      1.08000000     45.03000000
 N4     27.98000000      1.94000000     45.45000000
 C5     27.66000000      1.63000000     46.86000000
 C6     28.75000000      1.89000000     47.91000000
OS7     28.97000000      3.29000000     48.03000000
 P8     30.24000000      3.72000000     48.87000000
OM9     31.15000000      3.48000000     47.72000000
OM10     29.77000000      5.07000000     49.13000000
OS11     30.06000000      2.67000000     50.04000000
C12     29.30000000      3.07000000     51.17000000
C13     28.38000000      1.98000000     51.73000000
OS14     27.32000000      2.60000000     52.47000000
C15     26.09000000      2.41000000     51.97000000
O16     25.88000000      1.84000000     50.89000000
C17     25.08000000      3.03000000     52.89000000
C18     23.86000000      3.35000000     52.07000000
C19     22.58000000      3.62000000     52.88000000
C20     22.07000000      2.81000000     54.08000000
C21     20.79000000      3.28000000     54.85000000
C22     19.35000000      2.78000000     54.52000000
C23     18.32000000      2.89000000     55.67000000
C24     16.83000000      3.14000000     55.95000000
C25     16.09000000      3.83000000     56.91000000
C26     15.73000000      4.72000000     58.15000000
C27     16.07000000      5.81000000     59.27000000
C28     17.19000000      5.88000000     60.40000000
C29     17.87000000      5.54000000     61.79000000
C30     18.41000000      4.34000000     62.68000000
C31     18.04000000      2.96000000     63.37000000
C32     17.00000000      2.02000000     64.08000000
C33     16.44000000      2.09000000     65.52000000
C34     29.18000000      0.98000000     52.58000000
OS35     28.45000000     99.81000000     52.99000000
C36     28.94000000     99.28000000     54.14000000
O37     30.01000000     99.65000000     54.62000000
C38     28.18000000     98.07000000     54.62000000
C39     28.26000000     98.08000000     56.14000000
C40     27.38000000     99.24000000     56.62000000
C41     27.08000000     99.15000000     58.11000000
C42     25.85000000      0.00000000     58.39000000
C43     25.28000000     99.69000000     59.77000000
C44     26.34000000     99.99000000     60.82000000
C45     25.79000000     99.69000000     62.21000000
C46     25.61000000      0.97000000     63.01000000
C47     25.04000000      0.64000000     64.39000000
C48     25.91000000     99.60000000     65.11000000
C49     25.73000000     99.76000000     66.62000000
C50     26.80000000     99.02000000     67.43000000
C51     26.59000000     99.31000000     68.92000000
C52     27.49000000     98.46000000     69.81000000
 C1     34.64000000      0.37000000     45.05000000
 C2     35.98000000      2.26000000     44.48000000
 C3     33.57000000      2.51000000     44.77000000
 N4     34.80000000      1.83000000     45.21000000
 C5     35.05000000      2.17000000     46.63000000
 C6     33.88000000      1.89000000     47.58000000
OS7     33.62000000      0.50000000     47.68000000
 P8     32.22000000      0.10000000     48.25000000
OM9     31.47000000      0.33000000     46.98000000
OM10     32.47000000     98.78000000     48.78000000
OS11     32.08000000      1.18000000     49.35000000
C12     32.67000000      0.85000000     50.60000000
C13     33.82000000      1.80000000     50.95000000
OS14     34.90000000      0.96000000     51.50000000
C15     35.95000000      0.33000000     50.86000000
O16     36.27000000      0.58000000     49.69000000
C17     36.80000000     99.54000000     51.90000000
C18     38.33000000     99.80000000     51.92000000
C19     39.14000000     99.71000000     53.25000000
C20     39.21000000      0.86000000     54.29000000
C21     40.25000000      0.84000000     55.45000000
C22     41.61000000      1.58000000     55.44000000
C23     42.96000000      1.16000000     56.10000000
C24     43.26000000      1.06000000     57.57000000
C25     44.06000000      0.17000000     58.18000000
C26     44.28000000      0.13000000     59.66000000
C27     45.18000000     99.02000000     60.23000000
C28     44.74000000     98.95000000     61.68000000
C29     45.88000000     98.86000000     62.69000000
C30     45.59000000     99.73000000     63.91000000
C31     46.71000000     99.51000000     64.93000000
C32     47.00000000      0.62000000     65.94000000
C33     45.86000000      0.76000000     66.95000000
C34     33.10000000      3.11000000     51.48000000
OS35     33.63000000      4.12000000     52.39000000
C36     32.79000000      4.81000000     53.26000000
O37     31.60000000      4.83000000     52.97000000
C38     33.47000000      5.50000000     54.49000000
C39     33.22000000      5.83000000     56.02000000
C40     34.16000000      6.83000000     56.82000000
C41     34.55000000      7.18000000     58.32000000
C42     35.74000000      6.49000000     59.09000000
C43     35.79000000      6.17000000     60.62000000
C44     36.64000000      4.97000000     61.13000000
C45     36.80000000      4.95000000     62.66000000
C46     37.45000000      3.70000000     63.28000000
C47     37.76000000      3.83000000     64.78000000
C48     36.71000000      3.31000000     65.77000000
C49     36.96000000      3.81000000     67.19000000
C50     36.83000000      5.33000000     67.27000000
C51     37.06000000      5.83000000     68.70000000
C52     36.26000000      7.09000000     69.04000000
 C1     41.28000000      3.44000000     45.09000000
 C2     40.04000000      1.45000000     44.59000000
 C3     42.41000000      1.31000000     45.10000000
 N4     41.14000000      2.00000000     45.37000000
 C5     40.78000000      1.77000000     46.79000000
 C6     41.81000000      2.18000000     47.84000000
OS7     42.10000000      3.56000000     47.78000000
 P8     43.34000000      4.07000000     48.63000000
OM9     44.24000000      3.94000000     47.45000000
OM10     42.71000000      5.35000000     48.89000000
OS11     43.35000000      2.94000000     49.74000000
C12     42.81000000      3.14000000     51.04000000
C13     41.92000000      1.96000000     51.46000000
OS14     40.76000000      2.48000000     52.15000000
C15     39.77000000      3.08000000     51.42000000
O16     39.61000000      2.89000000     50.20000000
C17     38.75000000      3.62000000     52.40000000
C18     37.35000000      3.08000000     52.09000000
C19     36.24000000      3.01000000     53.17000000
C20     35.81000000      1.97000000     54.23000000
C21     34.28000000      1.88000000     54.49000000
C22     32.74000000      1.79000000     54.76000000
C23     31.88000000      2.60000000     55.76000000
C24     31.36000000      1.90000000     56.98000000
C25     30.51000000      2.35000000     57.92000000
C26     30.13000000      1.55000000     59.14000000
C27     29.28000000      2.23000000     60.21000000
C28     29.96000000      3.40000000     60.90000000
C29     29.32000000      3.78000000     62.22000000
C30     29.18000000      2.51000000     63.05000000
C31     28.69000000      2.88000000     64.44000000
C32     28.60000000      1.69000000     65.39000000
C33     29.88000000      0.90000000     65.62000000
C34     42.76000000      0.83000000     52.12000000
OS35     42.15000000     99.59000000     52.55000000
C36     42.82000000     98.96000000     53.57000000
O37     43.96000000     99.30000000     53.83000000
C38     42.12000000     97.77000000     54.26000000
C39     42.45000000     97.55000000     55.76000000
C40     41.21000000     97.94000000     56.58000000
C41     41.14000000     98.26000000     58.08000000
C42     39.93000000     99.20000000     58.27000000
C43     39.23000000     99.32000000     59.62000000
C44     40.00000000      0.08000000     60.69000000
C45     39.30000000     99.81000000     62.01000000
C46     39.76000000      0.81000000     63.06000000
C47     39.33000000      0.38000000     64.46000000
C48     40.57000000     99.88000000     65.19000000
C49     40.43000000      0.18000000     66.68000000
C50     40.43000000     98.91000000     67.51000000
C51     40.49000000     99.22000000     69.00000000
C52     40.96000000     98.00000000     69.80000000
 C1     47.43000000      0.45000000     45.38000000
 C2     49.10000000      1.95000000     44.61000000
 C3     46.79000000      2.72000000     44.88000000
 N4     47.87000000      1.86000000     45.38000000
 C5     48.23000000      2.29000000     46.75000000
 C6     47.11000000      2.24000000     47.80000000
OS7     46.78000000      0.89000000     48.08000000
 P8     45.39000000      0.71000000     48.80000000
OM9     44.63000000      0.97000000     47.54000000
OM10     45.44000000     99.37000000     49.35000000
OS11     45.65000000      1.83000000     49.88000000
C12     46.35000000      1.36000000     51.03000000
C13     47.47000000      2.29000000     51.53000000
OS14     48.60000000      1.36000000     51.84000000
C15     49.38000000      0.70000000     50.88000000
O16     49.59000000      1.16000000     49.75000000
C17     50.00000000     99.35000000     51.38000000
C18     51.43000000     98.81000000     51.09000000
C19     51.99000000     97.81000000     52.15000000
C20     53.50000000     97.92000000     52.52000000
C21     53.97000000     97.20000000     53.82000000
C22     55.51000000     97.19000000     54.05000000
C23     56.22000000     96.77000000     55.36000000
C24     56.26000000     97.55000000     56.66000000
C25     57.29000000     97.86000000     57.47000000
C26     57.21000000     98.56000000     58.81000000
C27     57.38000000     97.48000000     59.88000000
C28     57.23000000     97.75000000     61.38000000
C29     58.22000000     96.83000000     62.11000000
C30     58.21000000     97.05000000     63.62000000
C31     59.55000000     96.75000000     64.30000000
C32     59.32000000     96.85000000     65.81000000
C33     58.01000000     97.59000000     66.08000000
C34     46.68000000      3.30000000     52.47000000
OS35     46.77000000      4.76000000     52.73000000
C36     45.98000000      5.32000000     53.75000000
O37     45.01000000      4.64000000     54.06000000
C38     46.35000000      6.66000000     54.52000000
C39     46.73000000      7.12000000     56.01000000
C40     48.15000000      7.15000000     56.71000000
C41     48.44000000      6.78000000     58.22000000
C42     49.62000000      5.81000000     58.59000000
C43     50.40000000      5.72000000     59.95000000
C44     49.66000000      5.37000000     61.26000000
C45     50.27000000      5.38000000     62.69000000
C46     50.89000000      4.17000000     63.43000000
C47     50.05000000      3.19000000     64.29000000
C48     50.02000000      3.06000000     65.82000000
C49     49.35000000      4.11000000     66.72000000
C50     50.30000000      5.28000000     66.92000000
C51     50.29000000      5.95000000     68.30000000
C52     49.20000000      6.99000000     68.57000000
 C1     55.75000000      1.88000000     45.30000000
 C2     54.22000000      3.39000000     44.25000000
 C3     53.68000000      1.01000000     44.47000000
 N4     54.32000000      2.19000000     45.06000000
 C5     53.64000000      2.54000000     46.33000000
 C6     53.49000000      1.40000000     47.33000000
OS7     54.79000000      1.04000000     47.77000000
 P8     54.88000000     99.70000000     48.59000000
OM9     54.50000000     99.05000000     47.30000000
OM10     56.28000000     99.81000000     48.98000000
OS11     53.83000000      0.26000000     49.64000000
C12     54.39000000      1.31000000     50.44000000
C13     53.59000000      2.56000000     50.81000000
OS14     54.57000000      3.63000000     51.00000000
C15     55.16000000      4.34000000     49.98000000
O16     54.71000000      4.37000000     48.82000000
C17     56.59000000      4.80000000     50.41000000
C18     57.09000000      6.28000000     50.57000000
C19     57.83000000      6.65000000     51.90000000
C20     57.75000000      7.59000000     53.17000000
C21     58.36000000      9.02000000     53.51000000
C22     58.16000000     10.27000000     54.51000000
C23     58.52000000     10.84000000     55.97000000
C24     58.26000000     12.02000000     56.97000000
C25     58.56000000     13.34000000     57.19000000
C26     58.54000000     14.72000000     57.87000000
C27     57.73000000     15.57000000     58.91000000
C28     57.74000000     15.89000000     60.44000000
C29     57.61000000     15.50000000     61.93000000
C30     56.25000000     15.35000000     62.61000000
C31     56.48000000     15.00000000     64.08000000
C32     55.39000000     15.67000000     64.92000000
C33     55.68000000     15.43000000     66.40000000
C34     52.82000000      2.04000000     52.04000000
OS35     51.65000000      2.38000000     52.80000000
C36     51.46000000      1.40000000     53.73000000
O37     52.11000000      0.37000000     53.72000000
C38     50.25000000      1.46000000     54.59000000
C39     50.70000000      1.48000000     56.03000000
C40     51.56000000      2.70000000     56.35000000
C41     51.53000000      2.79000000     57.87000000
C42     52.87000000      3.13000000     58.47000000
C43     52.79000000      2.83000000     59.97000000
C44     54.20000000      2.90000000     60.53000000
C45     54.22000000      3.25000000     62.02000000
C46     53.96000000      2.11000000     63.00000000
C47     54.11000000      2.70000000     64.41000000
C48     53.63000000      1.75000000     65.51000000
C49     53.48000000      2.48000000     66.84000000
C50     52.69000000      1.63000000     67.83000000
C51     52.15000000      2.48000000     68.98000000
C52     50.86000000      1.87000000     69.53000000
 C1     60.13000000      3.27000000     45.14000000
 C2     59.67000000      0.94000000     44.67000000
 C3     61.96000000      1.68000000     44.87000000
 N4     60.57000000      1.88000000     45.33000000
 C5     60.49000000      1.53000000     46.77000000
 C6     61.51000000      2.21000000     47.68000000
OS7     61.39000000      3.62000000     47.69000000
 P8     62.38000000      4.36000000     48.69000000
OM9     63.47000000      4.32000000     47.68000000
OM10     61.49000000      5.52000000     48.75000000
OS11     62.42000000      3.32000000     49.88000000
C12     61.29000000      3.24000000     50.76000000
C13     61.08000000      1.83000000     51.34000000
OS14     59.79000000      1.60000000     51.97000000
C15     58.94000000      0.86000000     51.20000000
O16     58.95000000      1.02000000     49.98000000
C17     57.97000000      0.03000000     52.05000000
C18     56.76000000      0.83000000     52.55000000
C19     56.05000000      0.29000000     53.81000000
C20     54.95000000      1.13000000     54.47000000
C21     54.73000000      0.91000000     55.97000000
C22     53.75000000     99.76000000     56.20000000
C23     53.37000000     99.53000000     57.66000000
C24     52.29000000     98.51000000     57.82000000
C25     51.17000000     98.72000000     58.52000000
C26     50.08000000     97.74000000     58.80000000
C27     49.45000000     98.04000000     60.17000000
C28     50.52000000     98.44000000     61.18000000
C29     49.92000000     98.47000000     62.59000000
C30     49.74000000     97.02000000     63.04000000
C31     48.50000000     96.76000000     63.90000000
C32     48.77000000     96.43000000     65.37000000
C33     49.44000000     97.57000000     66.15000000
C34     62.28000000      1.45000000     52.22000000
OS35     62.20000000      0.06000000     52.55000000
C36     62.92000000     99.55000000     53.59000000
O37     64.10000000     99.83000000     53.80000000
C38     62.13000000     98.35000000     54.13000000
C39     62.51000000     97.94000000     55.56000000
C40     61.40000000     97.42000000     56.49000000
C41     61.94000000     97.35000000     57.93000000
C42     60.89000000     97.43000000     59.04000000
C43     61.31000000     98.12000000     60.36000000
C44     60.51000000     99.41000000     60.69000000
C45     60.19000000     99.52000000     62.20000000
C46     59.28000000      0.58000000     62.90000000
C47     59.02000000      0.41000000     64.43000000
C48     59.89000000      0.97000000     65.60000000
C49     59.76000000      0.33000000     67.01000000
C50     60.94000000     99.46000000     67.51000000
C51     60.72000000     98.62000000     68.78000000
C52     62.04000000     98.23000000     69.46000000
 C1     67.23000000      0.50000000     45.15000000
 C2     68.71000000      2.30000000     44.69000000
 C3     66.30000000      2.66000000     44.63000000
 N4     67.42000000      1.96000000     45.28000000
 C5     67.49000000      2.38000000     46.70000000
 C6     66.23000000      2.17000000     47.54000000
OS7     66.05000000      0.77000000     47.68000000
 P8     64.66000000      0.25000000     48.20000000
OM9     64.00000000      0.73000000     46.95000000
OM10     65.03000000     98.85000000     48.33000000
OS11     64.62000000      1.18000000     49.47000000
C12     65.39000000      0.66000000     50.57000000
C13     66.63000000      1.50000000     50.91000000
OS14     67.64000000      0.60000000     51.47000000
C15     68.73000000      0.12000000     50.79000000
O16     68.97000000      0.44000000     49.61000000
C17     69.61000000     99.24000000     51.70000000
C18     71.03000000     99.70000000     52.13000000
C19     71.20000000      0.06000000     53.64000000
C20     72.24000000      1.15000000     54.09000000
C21     72.67000000      1.54000000     55.52000000
C22     74.18000000      1.89000000     55.65000000
C23     74.92000000      0.96000000     56.62000000
C24     76.30000000      1.35000000     57.03000000
C25     77.08000000      0.67000000     57.88000000
C26     78.42000000      1.12000000     58.33000000
C27     79.01000000      0.47000000     59.58000000
C28     78.47000000      0.84000000     60.96000000
C29     79.55000000      0.23000000     61.85000000
C30     79.79000000      0.98000000     63.15000000
C31     81.02000000      0.37000000     63.82000000
C32     80.90000000      0.68000000     65.30000000
C33     79.82000000      1.75000000     65.40000000
C34     66.12000000      2.85000000     51.53000000
OS35     66.99000000      3.83000000     52.19000000
C36     66.46000000      4.50000000     53.28000000
O37     65.29000000      4.77000000     53.08000000
C38     67.36000000      5.08000000     54.47000000
C39     67.72000000      6.08000000     55.71000000
C40     68.61000000      6.89000000     56.82000000
C41     69.56000000      7.41000000     58.00000000
C42     70.52000000      7.93000000     59.18000000
C43     71.75000000      7.66000000     60.17000000