#B3LYP/6-31+G(d) OPT FREQ

23400, Energy = -208448.97134582 au

0 1
 C1      0.14000000      1.53000000     46.50000000
 C2     99.32000000     99.30000000     46.46000000
 C3      0.46000000      0.16000000     44.53000000
 N4      0.42000000      0.18000000     45.99000000
 C5      1.65000000     99.64000000     46.61000000
 C6      3.05000000      0.23000000     46.30000000
OS7      3.15000000      1.63000000     46.57000000
 P8      3.88000000      2.02000000     47.94000000
OM9      5.22000000      2.03000000     47.33000000
OM10      3.18000000      3.29000000     48.13000000
OS11      3.46000000      0.82000000     48.89000000
C12      2.53000000      1.10000000     49.95000000
C13      1.53000000     99.99000000     50.37000000
OS14      0.35000000      0.52000000     51.02000000
C15     99.21000000      0.70000000     50.29000000
O16     99.19000000      0.67000000     49.06000000
C17     98.00000000      1.02000000     51.16000000
C18     97.41000000      2.42000000     50.99000000
C19     96.13000000      2.55000000     51.81000000
C20     96.32000000      2.37000000     53.32000000
C21     94.95000000      2.40000000     54.00000000
C22     94.81000000      1.83000000     55.42000000
C23     93.34000000      1.54000000     55.71000000
C24     93.01000000      0.99000000     57.07000000
C25     91.81000000      1.00000000     57.68000000
C26     91.52000000      0.43000000     59.04000000
C27     90.16000000      0.81000000     59.64000000
C28     90.06000000      2.32000000     59.82000000
C29     88.99000000      2.82000000     60.79000000
C30     89.20000000      2.37000000     62.24000000
C31     88.62000000      3.40000000     63.20000000
C32     88.35000000      2.84000000     64.60000000
C33     89.60000000      2.27000000     65.26000000
C34      2.23000000     98.87000000     51.18000000
OS35      1.36000000     97.76000000     51.51000000
C36      1.69000000     97.05000000     52.62000000
O37      2.85000000     96.93000000     53.02000000
C38      0.51000000     96.21000000     53.13000000
C39      0.76000000     95.56000000     54.50000000
C40     99.49000000     95.31000000     55.34000000
C41     99.76000000     95.27000000     56.86000000
C42     99.04000000     96.36000000     57.67000000
C43     99.46000000     96.48000000     59.14000000
C44     99.22000000     97.86000000     59.77000000
C45     99.57000000     97.98000000     61.26000000
C46     99.05000000     99.31000000     61.83000000
C47     99.38000000     99.59000000     63.31000000
C48     98.40000000     98.96000000     64.30000000
C49     98.53000000     99.55000000     65.72000000
C50     99.81000000     99.15000000     66.46000000
C51     99.51000000     98.20000000     67.62000000
C52      0.78000000     97.77000000     68.35000000
 C1      9.85000000      1.34000000     45.71000000
 C2      8.27000000      3.07000000     45.30000000
 C3      7.49000000      0.83000000     45.64000000
 N4      8.50000000      1.84000000     46.02000000
 C5      8.36000000      2.15000000     47.47000000
 C6      8.31000000      0.95000000     48.42000000
OS7      9.54000000      0.25000000     48.35000000
 P8      9.48000000     98.71000000     48.59000000
OM9      8.34000000     98.40000000     47.70000000
OM10     10.81000000     98.33000000     48.11000000
OS11      9.21000000     98.82000000     50.15000000
C12     10.10000000     99.55000000     51.02000000
C13      9.40000000      0.76000000     51.69000000
OS14     10.25000000      1.63000000     52.54000000
C15     10.91000000      2.72000000     52.01000000
O16     10.97000000      2.88000000     50.79000000
C17     11.22000000      3.84000000     53.05000000
C18     12.29000000      4.91000000     52.73000000
C19     12.23000000      6.36000000     53.30000000
C20     12.69000000      6.94000000     54.66000000
C21     12.74000000      8.49000000     54.70000000
C22     12.54000000      9.24000000     56.04000000
C23     12.73000000     10.77000000     55.84000000
C24     12.39000000     11.87000000     56.83000000
C25     12.04000000     13.13000000     56.47000000
C26     11.69000000     14.56000000     56.88000000
C27     11.84000000     14.98000000     58.34000000
C28     11.33000000     16.33000000     58.84000000
C29     11.82000000     16.73000000     60.24000000
C30     11.23000000     16.12000000     61.52000000
C31     12.01000000     16.67000000     62.73000000
C32     11.77000000     16.09000000     64.14000000
C33     10.61000000     16.68000000     64.94000000
C34      8.07000000      0.18000000     52.24000000
OS35      6.88000000      1.02000000     52.19000000
C36      5.68000000      0.54000000     52.66000000
O37      5.29000000     99.40000000     52.41000000
C38      4.70000000      1.68000000     52.98000000
C39      4.09000000      1.64000000     54.40000000
C40      4.38000000      2.88000000     55.26000000
C41      4.15000000      2.63000000     56.76000000
C42      4.89000000      3.39000000     57.88000000
C43      6.41000000      3.25000000     58.19000000
C44      7.10000000      2.44000000     59.32000000
C45      6.50000000      2.45000000     60.72000000
C46      7.28000000      1.75000000     61.84000000
C47      6.69000000      2.16000000     63.20000000
C48      7.35000000      1.62000000     64.47000000
C49      6.73000000      2.29000000     65.70000000
C50      7.23000000      1.71000000     67.03000000
C51      6.47000000      2.34000000     68.21000000
C52      6.90000000      1.73000000     69.55000000
 C1     16.64000000      0.98000000     46.64000000
 C2     17.04000000      2.90000000     45.31000000
 C3     14.86000000      1.97000000     45.40000000
 N4     16.06000000      2.26000000     46.18000000
 C5     15.83000000      3.13000000     47.37000000
 C6     14.53000000      2.92000000     48.18000000
OS7     14.38000000      1.52000000     48.33000000
 P8     12.98000000      0.83000000     48.32000000
OM9     12.33000000      1.76000000     47.36000000
OM10     13.57000000     99.58000000     47.80000000
OS11     12.90000000      1.01000000     49.89000000
C12     13.85000000      0.28000000     50.67000000
C13     14.86000000      1.11000000     51.49000000
OS14     16.09000000      0.33000000     51.60000000
C15     17.05000000      0.33000000     50.62000000
O16     17.14000000      1.13000000     49.69000000
C17     18.09000000     99.25000000     50.90000000
C18     19.34000000     99.83000000     51.55000000
C19     20.18000000     98.84000000     52.36000000
C20     21.11000000     99.51000000     53.38000000
C21     22.04000000     98.52000000     54.11000000
C22     22.93000000     99.18000000     55.16000000
C23     23.72000000     98.16000000     55.97000000
C24     24.69000000     98.69000000     57.00000000
C25     25.97000000     98.29000000     57.04000000
C26     27.25000000     98.47000000     57.81000000
C27     27.30000000     99.25000000     59.13000000
C28     26.89000000     98.43000000     60.34000000
C29     27.94000000     98.35000000     61.45000000
C30     28.19000000     99.65000000     62.20000000
C31     28.56000000     99.36000000     63.66000000
C32     29.59000000      0.36000000     64.19000000
C33     29.57000000      0.49000000     65.71000000
C34     14.13000000      1.51000000     52.81000000
OS35     14.55000000      2.62000000     53.67000000
C36     13.84000000      2.79000000     54.85000000
O37     12.83000000      2.15000000     55.10000000
C38     14.25000000      4.03000000     55.65000000
C39     13.63000000      4.30000000     57.04000000
C40     14.20000000      5.60000000     57.67000000
C41     14.19000000      5.66000000     59.21000000
C42     15.18000000      6.59000000     59.93000000
C43     16.53000000      6.14000000     60.54000000
C44     16.43000000      5.47000000     61.92000000
C45     17.66000000      4.70000000     62.45000000
C46     17.31000000      3.33000000     63.08000000
C47     17.16000000      3.16000000     64.60000000
C48     16.40000000      1.89000000     65.02000000
C49     16.32000000      1.76000000     66.55000000
C50     15.22000000      0.81000000     67.05000000
C51     13.91000000      1.53000000     67.36000000
C52     13.99000000      2.34000000     68.65000000
 C1     21.73000000     99.71000000     45.97000000
 C2     24.01000000     99.34000000     45.57000000
 C3     22.70000000      0.49000000     43.91000000
 N4     22.93000000      0.29000000     45.35000000
 C5     23.31000000      1.54000000     46.06000000
 C6     22.63000000      2.89000000     45.72000000
OS7     21.22000000      2.79000000     45.54000000
 P8     20.24000000      2.99000000     46.78000000
OM9     19.63000000      4.19000000     46.20000000
OM10     19.59000000      1.69000000     46.59000000
OS11     21.25000000      2.96000000     48.00000000
C12     21.05000000      1.91000000     48.95000000
C13     22.32000000      1.53000000     49.74000000
OS14     22.33000000      0.15000000     50.20000000
C15     23.16000000     99.19000000     49.69000000
O16     23.38000000     99.07000000     48.48000000
C17     23.21000000     98.03000000     50.68000000
C18     23.11000000     96.63000000     50.07000000
C19     22.06000000     95.74000000     50.76000000
C20     22.34000000     95.37000000     52.22000000
C21     21.65000000     94.07000000     52.69000000
C22     21.68000000     94.02000000     54.22000000
C23     21.39000000     92.67000000     54.90000000
C24     21.64000000     92.73000000     56.38000000
C25     22.50000000     92.04000000     57.16000000
C26     22.64000000     92.28000000     58.64000000
C27     23.56000000     91.38000000     59.48000000
C28     23.58000000     92.00000000     60.89000000
C29     24.25000000     91.22000000     62.03000000
C30     24.15000000     92.10000000     63.29000000
C31     24.26000000     91.36000000     64.63000000
C32     25.66000000     90.88000000     64.98000000
C33     25.70000000     90.35000000     66.41000000
C34     22.47000000      2.63000000     50.82000000
OS35     23.59000000      2.53000000     51.72000000
C36     23.21000000      2.48000000     53.03000000
O37     22.04000000      2.50000000     53.37000000
C38     24.38000000      2.44000000     54.01000000
C39     23.84000000      2.54000000     55.44000000
C40     24.90000000      2.36000000     56.53000000
C41     24.25000000      2.28000000     57.92000000
C42     25.34000000      2.17000000     58.98000000
C43     24.83000000      2.03000000     60.42000000
C44     24.20000000      0.67000000     60.74000000
C45     24.36000000      0.38000000     62.23000000
C46     23.72000000     99.06000000     62.66000000
C47     24.04000000     98.80000000     64.13000000
C48     23.45000000     99.90000000     65.01000000
C49     23.99000000     99.81000000     66.44000000
C50     23.40000000      0.88000000     67.36000000
C51     24.04000000      0.79000000     68.74000000
C52     23.47000000      1.86000000     69.68000000
 C1     27.55000000     99.69000000     47.09000000
 C2     29.84000000     99.34000000     47.66000000
 C3     29.31000000      0.39000000     45.58000000
 N4     28.91000000      0.25000000     46.98000000
 C5     29.01000000      1.52000000     47.72000000
 C6     28.23000000      2.76000000     47.21000000
OS7     26.82000000      2.59000000     47.26000000
 P8     26.14000000      3.49000000     48.39000000
OM9     26.58000000      4.76000000     47.81000000
OM10     24.78000000      2.99000000     48.23000000
OS11     26.97000000      2.93000000     49.62000000
C12     26.27000000      2.00000000     50.44000000
C13     27.14000000      1.00000000     51.22000000
OS14     26.47000000     99.73000000     51.33000000
C15     27.21000000     98.67000000     50.90000000
O16     27.68000000     98.67000000     49.77000000
C17     26.80000000     97.45000000     51.69000000
C18     26.62000000     97.82000000     53.16000000
C19     27.91000000     97.84000000     53.98000000
C20     28.53000000     96.45000000     54.20000000
C21     29.45000000     96.47000000     55.43000000
C22     30.45000000     95.31000000     55.45000000
C23     29.77000000     93.96000000     55.64000000
C24     29.12000000     93.78000000     56.98000000
C25     29.09000000     92.63000000     57.66000000
C26     28.42000000     92.33000000     58.96000000
C27     29.38000000     92.32000000     60.15000000
C28     28.69000000     91.78000000     61.40000000
C29     29.74000000     91.53000000     62.47000000
C30     29.15000000     91.18000000     63.84000000
C31     30.28000000     90.79000000     64.79000000
C32     29.81000000     90.67000000     66.24000000
C33     29.56000000     92.04000000     66.86000000
C34     27.53000000      1.52000000     52.61000000
OS35     28.94000000      1.39000000     52.89000000
C36     29.43000000      1.75000000     54.11000000
O37     30.53000000      2.31000000     54.21000000
C38     28.44000000      1.64000000     55.26000000
C39     29.10000000      1.93000000     56.62000000
C40     29.94000000      0.76000000     57.14000000
C41     30.52000000      0.94000000     58.55000000
C42     31.07000000     99.61000000     59.09000000
C43     31.58000000     99.70000000     60.53000000
C44     31.83000000     98.32000000     61.15000000
C45     32.02000000     98.42000000     62.67000000
C46     31.93000000     97.07000000     63.39000000
C47     31.42000000     97.13000000     64.84000000
C48     32.27000000     98.00000000     65.77000000
C49     31.70000000     98.08000000     67.19000000
C50     32.37000000     99.20000000     67.99000000
C51     31.69000000     99.46000000     69.34000000
C52     32.34000000      0.64000000     70.06000000
 C1     34.47000000      3.04000000     46.43000000
 C2     32.22000000      2.69000000     46.21000000
 C3     33.66000000      2.37000000     44.30000000
 N4     33.50000000      2.17000000     45.74000000
 C5     33.64000000      0.75000000     46.15000000
 C6     34.89000000     99.93000000     45.72000000
OS7     36.08000000      0.68000000     45.90000000
 P8     36.94000000      0.46000000     47.22000000
OM9     37.81000000     99.54000000     46.49000000
OM10     37.16000000      1.92000000     47.26000000
OS11     35.84000000     99.94000000     48.23000000
C12     35.32000000      0.88000000     49.17000000
C13     34.28000000      0.29000000     50.13000000
OS14     33.45000000      1.34000000     50.72000000
C15     32.30000000      1.79000000     50.13000000
O16     31.96000000      1.47000000     48.98000000
C17     31.63000000      2.90000000     50.95000000
C18     30.51000000      3.56000000     50.13000000
C19     29.82000000      4.83000000     50.67000000
C20     29.00000000      4.53000000     51.92000000
C21     27.83000000      5.46000000     52.24000000
C22     27.22000000      5.04000000     53.59000000
C23     26.44000000      6.16000000     54.28000000
C24     25.89000000      5.78000000     55.62000000
C25     25.50000000      6.56000000     56.65000000
C26     24.95000000      5.98000000     57.92000000
C27     25.28000000      6.65000000     59.25000000
C28     25.14000000      5.59000000     60.34000000
C29     25.34000000      6.04000000     61.79000000
C30     24.72000000      5.00000000     62.74000000
C31     24.80000000      5.40000000     64.21000000
C32     24.06000000      4.40000000     65.09000000
C33     24.26000000      4.63000000     66.58000000
C34     35.16000000     99.42000000     51.06000000
OS35     34.69000000     98.43000000     51.99000000
C36     35.46000000     98.29000000     53.12000000
O37     36.24000000     99.16000000     53.50000000
C38     34.95000000     97.12000000     53.95000000
C39     35.54000000     96.97000000     55.35000000
C40     34.58000000     96.19000000     56.25000000
C41     35.12000000     96.12000000     57.67000000
C42     34.05000000     95.70000000     58.67000000
C43     34.64000000     95.46000000     60.07000000
C44     35.26000000     96.71000000     60.69000000
C45     35.44000000     96.54000000     62.20000000
C46     36.10000000     97.76000000     62.83000000
C47     35.72000000     98.03000000     64.29000000
C48     36.17000000     96.95000000     65.28000000
C49     35.72000000     97.36000000     66.68000000
C50     35.98000000     96.27000000     67.72000000
C51     35.22000000     96.55000000     69.02000000
C52     35.74000000     97.81000000     69.71000000
 C1     40.14000000      2.01000000     46.83000000
 C2     39.12000000      1.62000000     44.73000000
 C3     41.44000000      2.25000000     44.82000000
 N4     40.37000000      1.48000000     45.47000000
 C5     40.68000000      0.03000000     45.60000000
 C6     42.11000000     99.59000000     46.02000000
OS7     42.57000000      0.53000000     46.95000000
 P8     43.94000000      0.64000000     47.69000000
OM9     44.66000000     99.96000000     46.59000000
OM10     43.54000000      2.06000000     47.55000000
OS11     43.28000000     99.60000000     48.67000000
C12     42.43000000      0.21000000     49.64000000
C13     41.69000000     99.29000000     50.62000000
OS14     40.55000000     99.99000000     51.25000000
C15     39.39000000      0.38000000     50.62000000
O16     39.28000000      0.56000000     49.40000000
C17     38.32000000      0.78000000     51.64000000
C18     37.74000000      2.20000000     51.51000000
C19     36.36000000      2.46000000     52.15000000
C20     36.18000000      2.50000000     53.68000000
C21     34.83000000      3.14000000     54.06000000
C22     34.77000000      3.39000000     55.58000000
C23     33.38000000      3.70000000     56.15000000
C24     33.39000000      3.47000000     57.64000000
C25     32.98000000      4.18000000     58.70000000
C26     33.17000000      3.73000000     60.12000000
C27     31.94000000      3.54000000     61.01000000
C28     31.61000000      4.82000000     61.77000000
C29     30.78000000      4.51000000     63.01000000
C30     29.43000000      3.90000000     62.64000000
C31     28.58000000      3.74000000     63.89000000
C32     27.33000000      2.92000000     63.59000000
C33     26.72000000      2.34000000     64.86000000
C34     42.80000000     98.80000000     51.60000000
OS35     42.74000000     97.47000000     52.15000000
C36     43.21000000     97.29000000     53.43000000
O37     43.84000000     98.17000000     54.02000000
C38     42.95000000     95.88000000     53.99000000
C39     42.49000000     95.73000000     55.45000000
C40     40.97000000     95.54000000     55.66000000
C41     40.45000000     95.73000000     57.10000000
C42     38.97000000     96.07000000     57.31000000
C43     38.64000000     96.56000000     58.73000000
C44     39.00000000     98.02000000     59.05000000
C45     38.90000000     98.35000000     60.55000000
C46     39.60000000     99.63000000     61.07000000
C47     39.23000000     99.88000000     62.54000000
C48     39.87000000      1.11000000     63.19000000
C49     39.13000000      1.54000000     64.47000000
C50     39.28000000      0.55000000     65.62000000
C51     38.48000000      0.97000000     66.86000000
C52     38.64000000     99.96000000     68.00000000
 C1     46.69000000      2.31000000     45.74000000
 C2     47.14000000      0.09000000     45.04000000
 C3     48.97000000      1.63000000     45.19000000
 N4     47.69000000      1.22000000     45.78000000
 C5     47.87000000      0.80000000     47.20000000
 C6     48.79000000      1.70000000     48.05000000
OS7     48.40000000      3.07000000     47.90000000
 P8     49.51000000      4.11000000     48.27000000
OM9     50.59000000      3.58000000     47.43000000
OM10     49.02000000      5.42000000     47.88000000
OS11     49.63000000      3.80000000     49.80000000
C12     48.42000000      4.05000000     50.52000000
C13     47.76000000      2.80000000     51.11000000
OS14     46.46000000      3.02000000     51.72000000
C15     45.45000000      2.25000000     51.23000000
O16     45.52000000      1.56000000     50.20000000
C17     44.18000000      2.45000000     52.05000000
C18     43.29000000      3.51000000     51.40000000
C19     41.80000000      3.14000000     51.42000000
C20     40.96000000      3.36000000     52.68000000
C21     40.93000000      2.38000000     53.87000000
C22     39.66000000      2.67000000     54.68000000
C23     39.61000000      2.39000000     56.19000000
C24     38.38000000      2.91000000     56.88000000
C25     38.31000000      3.55000000     58.06000000
C26     37.05000000      4.06000000     58.69000000
C27     37.16000000      5.27000000     59.62000000
C28     37.78000000      4.92000000     60.97000000
C29     37.17000000      5.77000000     62.09000000
C30     35.74000000      5.31000000     62.34000000
C31     35.01000000      5.96000000     63.52000000
C32     35.24000000      5.35000000     64.91000000
C33     36.61000000      5.61000000     65.52000000
C34     48.82000000      2.25000000     52.07000000
OS35     48.84000000      0.82000000     52.14000000
C36     48.55000000      0.32000000     53.38000000
O37     48.80000000     99.17000000     53.67000000
C38     48.09000000      1.39000000     54.35000000
C39     47.67000000      0.79000000     55.69000000
C40     47.38000000      1.89000000     56.71000000
C41     46.57000000      1.29000000     57.85000000
C42     46.40000000      2.25000000     59.02000000
C43     45.44000000      1.65000000     60.05000000
C44     45.49000000      2.47000000     61.33000000
C45     44.62000000      1.95000000     62.48000000
C46     45.08000000      2.60000000     63.78000000
C47     44.38000000      2.01000000     65.00000000
C48     45.07000000      2.51000000     66.26000000
C49     44.51000000      1.79000000     67.49000000
C50     44.67000000      0.28000000     67.31000000
C51     44.38000000     99.53000000     68.61000000
C52     45.53000000     99.73000000     69.61000000
 C1     54.60000000      2.02000000     45.30000000
 C2     54.58000000      4.37000000     44.92000000
 C3     52.52000000      3.26000000     45.26000000
 N4     53.93000000      3.28000000     45.64000000
 C5     54.06000000      3.58000000     47.09000000
 C6     53.33000000      2.65000000     48.09000000
OS7     53.70000000      1.28000000     47.93000000
 P8     52.59000000      0.27000000     48.37000000
OM9     51.53000000      0.55000000     47.38000000
OM10     53.27000000     98.97000000     48.25000000
OS11     52.39000000      0.79000000     49.85000000
C12     53.46000000      0.33000000     50.69000000
C13     54.18000000      1.23000000     51.72000000
OS14     55.53000000      0.70000000     51.90000000
C15     56.52000000      0.76000000     50.95000000
O16     56.56000000      1.53000000     49.98000000
C17     57.70000000     99.88000000     51.39000000
C18     58.58000000     99.21000000     50.32000000
C19     59.35000000     97.96000000     50.79000000
C20     60.10000000     98.14000000     52.11000000
C21     60.62000000     96.88000000     52.82000000
C22     61.33000000     97.21000000     54.15000000
C23     61.62000000     96.01000000     55.08000000
C24     62.07000000     96.44000000     56.46000000
C25     62.93000000     96.23000000     57.48000000
C26     64.09000000     95.34000000     57.88000000
C27     64.61000000     95.69000000     59.27000000
C28     65.57000000     94.69000000     59.93000000
C29     65.76000000     95.14000000     61.38000000
C30     66.72000000     94.31000000     62.23000000
C31     66.79000000     94.90000000     63.64000000
C32     68.20000000     94.80000000     64.21000000
C33     68.30000000     95.44000000     65.60000000
C34     53.35000000      1.27000000     53.04000000
OS35     52.33000000      2.27000000     53.31000000
C36     51.76000000      2.26000000     54.56000000
O37     51.56000000      1.21000000     55.16000000
C38     50.94000000      3.53000000     54.86000000
C39     51.37000000      4.40000000     56.06000000
C40     50.76000000      4.08000000     57.44000000
C41     51.53000000      4.79000000     58.56000000
C42     51.07000000      4.45000000     59.99000000
C43     52.05000000      4.98000000     61.06000000
C44     51.75000000      4.73000000     62.54000000
C45     52.37000000      3.44000000     63.08000000
C46     52.09000000      3.19000000     64.57000000
C47     52.92000000      4.08000000     65.48000000
C48     52.88000000      3.58000000     66.93000000
C49     53.87000000      4.35000000     67.81000000
C50     53.90000000      3.78000000     69.23000000
C51     54.90000000      4.52000000     70.12000000
C52     54.44000000      5.96000000     70.37000000
 C1     60.82000000      0.91000000     45.64000000
 C2     62.70000000      2.32000000     45.92000000
 C3     61.77000000      1.92000000     43.69000000
 N4     61.50000000      2.12000000     45.12000000
 C5     60.75000000      3.36000000     45.36000000
 C6     59.28000000      3.50000000     44.93000000
OS7     58.46000000      2.57000000     45.59000000
 P8     57.73000000      2.88000000     46.97000000
OM9     57.19000000      4.09000000     46.33000000
OM10     57.39000000      1.48000000     46.72000000
OS11     59.07000000      3.19000000     47.76000000
C12     59.38000000      2.13000000     48.67000000
C13     60.36000000      2.37000000     49.83000000
OS14     61.15000000      1.14000000     50.11000000
C15     62.13000000      0.44000000     49.42000000
O16     62.27000000      0.48000000     48.18000000
C17     62.81000000     99.35000000     50.28000000
C18     64.36000000     99.31000000     50.26000000
C19     65.19000000     98.75000000     51.45000000
C20     65.59000000     99.51000000     52.75000000
C21     67.03000000    100.00000000     53.08000000
C22     67.60000000     99.79000000     54.51000000
C23     69.03000000      0.24000000     54.88000000
C24     69.82000000     99.68000000     56.04000000
C25     70.60000000      0.25000000     56.98000000
C26     71.45000000     99.47000000     57.95000000
C27     71.52000000     99.90000000     59.42000000
C28     72.90000000      0.36000000     59.90000000
C29     73.83000000     99.29000000     60.46000000
C30     74.03000000     99.38000000     61.97000000
C31     74.95000000     98.26000000     62.46000000
C32     75.08000000     98.26000000     63.98000000
C33     75.55000000     96.89000000     64.50000000
C34     59.43000000      3.05000000     50.90000000
OS35     59.72000000      3.56000000     52.24000000
C36     58.67000000      3.89000000     53.08000000
O37     57.51000000      3.72000000     52.72000000
C38     59.07000000      4.38000000     54.50000000
C39     58.84000000      5.65000000     55.38000000
C40     59.86000000      6.31000000     56.39000000
C41     60.71000000      6.46000000     57.71000000
C42     62.14000000      5.96000000     58.06000000
C43     63.04000000      6.09000000     59.31000000
C44     62.63000000      5.52000000     60.67000000
C45     63.78000000      5.27000000     61.65000000
C46     63.31000000      4.96000000     63.07000000
C47     64.24000000      4.16000000     64.00000000
C48     63.61000000      4.18000000     65.40000000
C49     64.42000000      3.54000000     66.53000000
C50     63.67000000      3.81000000     67.84000000
C51     64.25000000      3.08000000     69.05000000
C52     63.47000000      3.45000000     70.32000000
 C1     65.90000000      1.56000000     46.33000000
 C2     65.36000000     99.35000000     46.89000000
 C3     65.53000000     99.98000000     44.57000000
 N4     66.09000000      0.17000000     45.91000000
 C5     67.52000000     99.78000000     45.98000000
 C6     68.58000000      0.51000000     45.10000000
OS7     68.52000000      1.94000000     45.06000000
 P8     69.21000000      2.84000000     46.18000000
OM9     70.50000000      2.98000000     45.48000000
OM10     68.20000000      3.90000000     46.11000000
OS11     69.04000000      1.84000000     47.39000000
C12     68.50000000      2.32000000     48.64000000
C13     67.62000000      1.26000000     49.36000000
OS14     66.77000000      1.84000000     50.39000000
C15     65.56000000      2.47000000     50.21000000
O16     65.06000000      2.60000000     49.08000000
C17     64.92000000      2.75000000     51.59000000
C18     63.47000000      2.30000000     51.86000000
C19     63.03000000      1.57000000     53.17000000
C20     61.53000000      1.17000000     53.19000000
C21     60.80000000      0.70000000     54.47000000
C22     59.26000000      0.74000000     54.35000000
C23     58.45000000      1.17000000     55.60000000
C24     56.94000000      1.23000000     55.56000000
C25     56.12000000      1.19000000     56.63000000
C26     54.61000000      1.17000000     56.61000000
C27     53.81000000      1.47000000     57.89000000
C28     52.67000000      0.45000000     58.05000000
C29     51.32000000      0.83000000     58.66000000
C30     51.24000000      0.75000000     60.18000000
C31     49.83000000      1.17000000     60.59000000
C32     49.73000000      1.32000000     62.11000000
C33     48.77000000      2.44000000     62.51000000
C34     68.54000000      0.06000000     49.74000000
OS35     68.03000000     98.81000000     50.29000000
C36     68.99000000     98.13000000     51.01000000
O37     70.15000000     98.39000000     50.73000000
C38     68.55000000     96.97000000     51.93000000
C39     69.00000000     97.04000000     53.42000000
C40     69.34000000     95.85000000     54.34000000
C41     68.85000000     95.81000000     55.81000000
C42     69.61000000     96.36000000     57.04000000
C43     68.74000000     96.32000000     58.32000000