#B3LYP/6-31+G(d) OPT FREQ

23400, Energy = 295338.06138931 au

0 1
 C1      0.96000000      2.97000000     44.93000000
 C2      0.89000000      0.68000000     44.52000000
 C3      2.72000000      2.04000000     43.57000000
 N4      1.82000000      1.80000000     44.70000000
 C5      2.67000000      1.43000000     45.87000000
 C6      3.67000000      2.44000000     46.48000000
OS7      2.95000000      3.63000000     46.75000000
 P8      2.48000000      4.01000000     48.24000000
OM9      3.88000000      4.46000000     48.13000000
OM10      1.42000000      4.63000000     47.41000000
OS11      2.25000000      2.42000000     48.64000000
C12      1.47000000      1.21000000     48.94000000
C13      1.13000000      0.36000000     50.21000000
OS14      0.22000000      1.12000000     51.08000000
C15     99.05000000      1.71000000     50.64000000
O16     98.65000000      1.51000000     49.49000000
C17     98.38000000      2.66000000     51.66000000
C18     97.19000000      2.46000000     52.65000000
C19     97.09000000      1.79000000     54.04000000
C20     95.66000000      1.24000000     54.27000000
C21     95.14000000      0.72000000     55.61000000
C22     93.60000000      0.67000000     55.53000000
C23     92.82000000     99.48000000     56.09000000
C24     92.71000000     99.14000000     57.54000000
C25     91.69000000     98.37000000     57.95000000
C26     91.27000000     97.77000000     59.27000000
C27     89.80000000     97.49000000     59.63000000
C28     89.78000000     96.65000000     60.92000000
C29     89.33000000     97.34000000     62.21000000
C30     90.36000000     97.09000000     63.32000000
C31     89.79000000     96.70000000     64.68000000
C32     90.08000000     95.22000000     64.91000000
C33     90.39000000     94.91000000     66.37000000
C34      2.42000000     99.63000000     50.77000000
OS35      2.60000000     99.32000000     52.18000000
C36      3.76000000     98.93000000     52.81000000
O37      4.91000000     99.14000000     52.41000000
C38      3.30000000     98.04000000     53.97000000
C39      3.86000000     97.96000000     55.39000000
C40      2.71000000     98.19000000     56.38000000
C41      1.67000000     98.39000000     57.53000000
C42      0.40000000     98.81000000     58.31000000
C43      0.58000000     98.56000000     59.83000000
C44      0.21000000     99.58000000     60.91000000
C45      0.78000000     99.20000000     62.29000000
C46     99.93000000     99.88000000     63.38000000
C47      0.32000000      0.06000000     64.85000000
C48      1.04000000     98.89000000     65.54000000
C49      1.18000000     99.17000000     67.05000000
C50      1.28000000     97.85000000     67.82000000
C51      1.27000000     98.04000000     69.33000000
C52      2.59000000     98.58000000     69.86000000
 C1      8.24000000      3.42000000     45.04000000
 C2      7.20000000      1.40000000     44.35000000
 C3      9.63000000      1.49000000     44.60000000
 N4      8.33000000      1.95000000     45.10000000
 C5      8.16000000      1.43000000     46.48000000
 C6      9.28000000      1.78000000     47.45000000
OS7      9.24000000      3.18000000     47.61000000
 P8     10.20000000      3.85000000     48.64000000
OM9     11.26000000      3.98000000     47.60000000
OM10      9.28000000      4.99000000     48.70000000
OS11     10.20000000      2.59000000     49.68000000
C12      9.39000000      2.05000000     50.78000000
C13      8.08000000      1.28000000     51.10000000
OS14      6.95000000      2.20000000     51.09000000
C15      5.82000000      1.93000000     50.36000000
O16      5.89000000      1.26000000     49.31000000
C17      4.74000000      2.98000000     50.64000000
C18      3.48000000      2.52000000     51.43000000
C19      2.14000000      3.30000000     51.64000000
C20      1.37000000      3.10000000     53.00000000
C21      0.44000000      4.19000000     53.67000000
C22     99.86000000      3.79000000     55.03000000
C23     99.07000000      4.44000000     56.17000000
C24     98.67000000      3.29000000     57.07000000
C25     97.61000000      3.07000000     57.86000000
C26     97.33000000      1.79000000     58.60000000
C27     96.91000000      1.96000000     60.05000000
C28     98.10000000      2.41000000     60.89000000
C29     97.70000000      2.44000000     62.36000000
C30     96.85000000      1.22000000     62.71000000
C31     96.69000000      1.15000000     64.23000000
C32     95.73000000      0.06000000     64.69000000
C33     95.34000000      0.26000000     66.15000000
C34      8.25000000      0.66000000     52.53000000
OS35      8.36000000     99.24000000     52.83000000
C36      8.81000000     98.79000000     54.06000000
O37      9.72000000     99.35000000     54.66000000
C38      8.70000000     97.30000000     54.28000000
C39      8.79000000     96.88000000     55.75000000
C40      7.39000000     97.08000000     56.34000000
C41      7.28000000     96.88000000     57.84000000
C42      6.40000000     97.82000000     58.69000000
C43      7.01000000     98.79000000     59.76000000
C44      7.76000000     99.93000000     60.58000000
C45      9.01000000      0.40000000     61.41000000
C46      9.52000000      0.02000000     62.84000000
C47      9.46000000      0.36000000     64.38000000
C48      8.42000000     99.80000000     65.40000000
C49      8.61000000     99.92000000     66.94000000
C50      8.22000000     98.60000000     67.63000000
C51      7.97000000     98.57000000     69.14000000
C52      9.18000000     98.05000000     69.91000000
 C1     14.54000000      0.60000000     45.64000000
 C2     16.31000000      1.76000000     44.56000000
 C3     14.09000000      2.80000000     44.83000000
 N4     15.13000000      1.94000000     45.40000000
 C5     15.62000000      2.57000000     46.66000000
 C6     14.66000000      2.70000000     47.85000000
OS7     14.42000000      1.39000000     48.34000000
 P8     13.08000000      1.24000000     49.15000000
OM9     12.38000000      1.58000000     47.88000000
OM10     13.01000000     99.82000000     49.39000000
OS11     13.61000000      2.33000000     50.25000000
C12     14.37000000      2.43000000     51.51000000
C13     15.47000000      2.37000000     52.64000000
OS14     15.86000000      1.05000000     53.18000000
C15     17.17000000      0.64000000     53.41000000
O16     18.07000000      1.39000000     53.13000000
C17     17.46000000     99.13000000     53.66000000
C18     18.27000000     98.46000000     52.53000000
C19     18.57000000     96.97000000     52.54000000
C20     20.03000000     96.77000000     52.94000000
C21     20.22000000     96.57000000     54.43000000
C22     21.65000000     96.65000000     54.96000000
C23     21.51000000     96.23000000     56.41000000
C24     22.73000000     96.12000000     57.26000000
C25     22.61000000     95.62000000     58.50000000
C26     23.68000000     95.48000000     59.52000000
C27     23.53000000     94.43000000     60.62000000
C28     23.65000000     95.01000000     62.02000000
C29     24.85000000     94.43000000     62.79000000
C30     24.91000000     95.11000000     64.16000000
C31     26.21000000     94.77000000     64.87000000
C32     26.81000000     95.97000000     65.60000000
C33     25.97000000     96.32000000     66.81000000
C34     14.85000000      3.26000000     53.73000000
OS35     15.28000000      4.62000000     53.96000000
C36     14.33000000      5.32000000     54.64000000
O37     13.17000000      5.03000000     54.38000000
C38     14.77000000      6.63000000     55.31000000
C39     15.18000000      6.58000000     56.80000000
C40     16.68000000      6.84000000     57.08000000
C41     17.22000000      6.24000000     58.40000000
C42     18.67000000      5.79000000     58.77000000
C43     18.91000000      5.37000000     60.26000000
C44     18.69000000      3.91000000     60.70000000
C45     18.70000000      3.67000000     62.23000000
C46     17.63000000      2.67000000     62.72000000
C47     17.58000000      2.39000000     64.23000000
C48     17.96000000      3.59000000     65.11000000
C49     17.80000000      3.34000000     66.62000000
C50     18.65000000      4.20000000     67.58000000
C51     18.64000000      5.74000000     67.56000000
C52     17.46000000      6.58000000     68.03000000
 C1     20.85000000      3.26000000     45.49000000
 C2     20.62000000      0.97000000     44.80000000
 C3     22.84000000      1.95000000     45.03000000
 N4     21.46000000      1.92000000     45.54000000
 C5     21.47000000      1.43000000     46.94000000
 C6     22.45000000      2.11000000     47.93000000
OS7     22.21000000      3.51000000     47.95000000
 P8     23.29000000      4.34000000     48.72000000
OM9     24.24000000      3.94000000     47.64000000
OM10     22.57000000      5.61000000     48.65000000
OS11     23.17000000      3.55000000     50.09000000
C12     22.16000000      4.07000000     50.97000000
C13     21.55000000      3.04000000     51.93000000
OS14     20.08000000      2.96000000     51.66000000
C15     19.51000000      2.22000000     50.60000000
O16     20.20000000      1.67000000     49.74000000
C17     17.98000000      2.22000000     50.35000000
C18     17.18000000      1.00000000     49.76000000
C19     16.45000000     99.67000000     50.23000000
C20     15.24000000     98.93000000     50.96000000
C21     14.59000000     98.62000000     52.38000000
C22     14.39000000     97.94000000     53.80000000
C23     14.12000000     98.88000000     55.03000000
C24     13.64000000     98.42000000     56.40000000
C25     13.76000000     99.00000000     57.63000000
C26     13.23000000     98.46000000     58.94000000
C27     13.59000000     98.93000000     60.36000000
C28     12.46000000     98.64000000     61.38000000
C29     12.32000000     97.38000000     62.28000000
C30     12.08000000     95.88000000     61.91000000
C31     12.35000000     94.78000000     62.97000000
C32     11.42000000     94.04000000     63.94000000
C33     12.15000000     93.80000000     65.28000000
C34     22.41000000      3.16000000     53.27000000
OS35     22.98000000      1.98000000     53.95000000
C36     24.20000000      1.57000000     54.49000000
O37     25.27000000      2.05000000     54.16000000
C38     24.19000000      0.13000000     55.01000000
C39     24.34000000     99.87000000     56.50000000
C40     23.22000000      0.49000000     57.31000000
C41     23.11000000     99.94000000     58.73000000
C42     21.89000000     99.06000000     58.85000000
C43     21.76000000     98.55000000     60.27000000
C44     21.69000000     99.80000000     61.12000000
C45     21.44000000     99.41000000     62.56000000
C46     20.80000000      0.59000000     63.27000000
C47     20.27000000      0.15000000     64.63000000
C48     21.38000000     99.32000000     65.24000000
C49     21.27000000     99.00000000     66.72000000
C50     22.09000000     97.72000000     66.81000000
C51     22.56000000     97.42000000     68.22000000
C52     23.60000000     98.44000000     68.67000000
 C1     27.06000000      3.16000000     45.45000000
 C2     26.96000000      0.90000000     44.70000000
 C3     29.03000000      2.12000000     44.44000000
 N4     27.83000000      1.92000000     45.27000000
 C5     28.22000000      1.38000000     46.60000000
 C6     29.32000000      2.14000000     47.36000000
OS7     28.89000000      3.48000000     47.62000000
 P8     29.67000000      4.22000000     48.80000000
OM9     30.81000000      4.23000000     47.83000000
OM10     28.79000000      5.37000000     48.89000000
OS11     29.41000000      2.99000000     49.78000000
C12     28.16000000      2.92000000     50.48000000
C13     27.85000000      1.50000000     51.00000000
OS14     26.45000000      1.38000000     51.38000000
C15     25.71000000      0.44000000     50.74000000
O16     26.10000000     99.92000000     49.68000000
C17     24.26000000      0.57000000     51.17000000
C18     23.34000000     99.35000000     51.02000000
C19     21.91000000     99.64000000     51.50000000
C20     21.75000000     99.51000000     53.02000000
C21     20.66000000      0.20000000     53.88000000
C22     20.60000000     99.87000000     55.39000000
C23     19.31000000      0.01000000     56.22000000
C24     18.79000000     98.73000000     56.81000000
C25     18.65000000     98.61000000     58.13000000
C26     18.20000000     97.55000000     59.06000000
C27     17.39000000     98.28000000     60.13000000
C28     18.20000000     98.93000000     61.24000000
C29     18.10000000     98.23000000     62.60000000
C30     19.01000000     97.03000000     62.90000000
C31     18.69000000     96.26000000     64.19000000
C32     18.77000000     96.81000000     65.61000000
C33     19.02000000     95.68000000     66.61000000
C34     28.90000000      1.17000000     52.07000000
OS35     28.96000000     99.85000000     52.61000000
C36     29.49000000     99.83000000     53.86000000
O37     30.06000000      0.78000000     54.39000000
C38     29.62000000     98.40000000     54.32000000
C39     30.15000000     98.38000000     55.75000000
C40     29.06000000     98.91000000     56.66000000
C41     29.46000000     98.91000000     58.13000000
C42     29.52000000     97.52000000     58.77000000
C43     29.74000000     97.65000000     60.27000000
C44     29.30000000     99.04000000     60.74000000
C45     29.34000000     99.04000000     62.26000000
C46     28.57000000      0.23000000     62.81000000
C47     28.18000000     99.94000000     64.24000000
C48     29.27000000     99.22000000     65.01000000
C49     28.77000000     99.00000000     66.43000000
C50     29.70000000     98.03000000     67.15000000
C51     29.02000000     97.53000000     68.42000000
C52     28.70000000     98.70000000     69.35000000
 C1     34.66000000      3.49000000     45.38000000
 C2     33.15000000      1.84000000     44.57000000
 C3     35.54000000      1.48000000     44.33000000
 N4     34.47000000      2.05000000     45.15000000
 C5     34.45000000      1.34000000     46.45000000
 C6     35.76000000      1.33000000     47.24000000
OS7     36.09000000      2.64000000     47.68000000
 P8     37.30000000      2.76000000     48.72000000
OM9     38.16000000      2.42000000     47.54000000
OM10     36.93000000      4.11000000     49.11000000
OS11     36.66000000      1.56000000     49.54000000
C12     35.96000000      1.56000000     50.80000000
C13     35.20000000      1.56000000     52.15000000
OS14     34.29000000      2.69000000     52.65000000
C15     32.89000000      2.89000000     52.91000000
O16     31.96000000      2.33000000     52.37000000
C17     32.21000000      4.06000000     53.50000000
C18     30.94000000      4.10000000     52.64000000
C19     29.63000000      4.59000000     53.26000000
C20     29.18000000      3.74000000     54.45000000
C21     27.67000000      3.83000000     54.61000000
C22     27.15000000      3.74000000     56.05000000
C23     25.79000000      4.44000000     56.13000000
C24     24.89000000      3.84000000     57.16000000
C25     24.22000000      4.44000000     58.14000000
C26     23.34000000      3.64000000     59.04000000
C27     22.72000000      4.42000000     60.19000000
C28     23.80000000      4.90000000     61.15000000
C29     23.12000000      5.24000000     62.47000000
C30     22.68000000      3.96000000     63.17000000
C31     21.89000000      4.37000000     64.41000000
C32     21.66000000      3.26000000     65.42000000
C33     22.97000000      2.86000000     66.10000000
C34     36.17000000      0.53000000     52.85000000
OS35     35.87000000     99.10000000     52.72000000
C36     36.29000000     98.27000000     53.75000000
O37     37.33000000     98.48000000     54.36000000
C38     35.27000000     97.13000000     54.05000000
C39     34.92000000     96.60000000     55.49000000
C40     33.45000000     96.73000000     56.02000000
C41     33.09000000     96.82000000     57.54000000
C42     32.74000000     98.22000000     58.15000000
C43     32.85000000     98.46000000     59.68000000
C44     32.82000000     99.84000000     60.37000000
C45     32.89000000     99.57000000     61.89000000
C46     32.61000000      0.73000000     62.85000000
C47     32.54000000      0.32000000     64.33000000
C48     33.79000000     99.64000000     64.89000000
C49     33.78000000     99.62000000     66.43000000
C50     33.37000000     98.26000000     66.99000000
C51     33.18000000     98.33000000     68.50000000
C52     34.49000000     98.36000000     69.29000000
 C1     40.65000000      3.36000000     45.42000000
 C2     39.53000000      1.47000000     44.64000000
 C3     41.91000000      1.68000000     44.16000000
 N4     40.82000000      1.93000000     45.11000000
 C5     41.05000000      1.15000000     46.36000000
 C6     42.45000000      1.27000000     46.99000000
OS7     42.62000000      2.65000000     47.25000000
 P8     43.36000000      3.20000000     48.53000000
OM9     44.47000000      2.99000000     47.55000000
OM10     42.46000000      4.34000000     48.39000000
OS11     42.76000000      1.98000000     49.39000000
C12     41.53000000      2.24000000     50.09000000
C13     41.07000000      1.21000000     51.16000000
OS14     40.55000000      1.97000000     52.26000000
C15     39.26000000      2.19000000     52.04000000
O16     38.78000000      1.61000000     51.09000000
C17     38.57000000      2.86000000     53.19000000
C18     37.56000000      3.93000000     52.83000000
C19     36.63000000      4.12000000     54.03000000
C20     36.23000000      3.06000000     55.09000000
C21     34.78000000      3.29000000     55.57000000
C22     34.02000000      3.01000000     56.88000000
C23     32.57000000      3.48000000     56.80000000
C24     31.54000000      2.60000000     57.44000000
C25     30.55000000      3.08000000     58.20000000
C26     29.45000000      2.32000000     58.86000000
C27     28.83000000      3.07000000     60.03000000
C28     29.79000000      3.13000000     61.22000000
C29     29.04000000      3.76000000     62.40000000
C30     29.70000000      3.43000000     63.74000000
C31     28.82000000      3.89000000     64.89000000
C32     28.96000000      2.95000000     66.09000000
C33     30.43000000      2.77000000     66.47000000
C34     42.18000000      0.24000000     51.61000000
OS35     41.85000000     99.27000000     52.63000000
C36     42.70000000     99.17000000     53.69000000
O37     43.82000000     99.66000000     53.76000000
C38     42.16000000     98.13000000     54.63000000
C39     42.13000000     98.64000000     56.06000000
C40     40.87000000     98.08000000     56.70000000
C41     40.93000000     98.34000000     58.19000000
C42     39.74000000     97.66000000     58.85000000
C43     39.84000000     97.75000000     60.37000000
C44     39.70000000     99.18000000     60.89000000
C45     39.65000000     99.08000000     62.42000000
C46     39.32000000      0.41000000     63.08000000
C47     39.15000000      0.21000000     64.59000000
C48     40.50000000      0.00000000     65.28000000
C49     40.41000000     99.66000000     66.77000000
C50     40.35000000     98.15000000     66.99000000
C51     40.00000000     97.81000000     68.44000000
C52     41.11000000     98.18000000     69.42000000
 C1     47.92000000      3.52000000     44.89000000
 C2     46.14000000      2.09000000     44.12000000
 C3     48.43000000      1.22000000     44.35000000
 N4     47.40000000      2.14000000     44.86000000
 C5     47.00000000      1.72000000     46.21000000
 C6     48.16000000      1.62000000     47.18000000
OS7     48.65000000      2.90000000     47.58000000
 P8     50.06000000      2.73000000     48.25000000
OM9     50.60000000      2.36000000     46.91000000
OM10     50.49000000      4.07000000     48.58000000
OS11     49.56000000      1.64000000     49.36000000
C12     48.46000000      1.89000000     50.28000000
C13     47.63000000      0.78000000     50.97000000
OS14     46.59000000      1.29000000     51.85000000
C15     45.47000000      1.99000000     51.50000000
O16     45.35000000      2.44000000     50.36000000
C17     44.70000000      2.43000000     52.75000000
C18     43.46000000      3.27000000     52.51000000
C19     42.87000000      4.13000000     53.62000000
C20     41.94000000      3.49000000     54.62000000
C21     40.95000000      4.60000000     54.90000000
C22     39.91000000      4.25000000     55.95000000
C23     39.95000000      2.83000000     56.49000000
C24     38.93000000      2.57000000     57.58000000
C25     38.01000000      2.36000000     58.54000000
C26     36.67000000      2.95000000     58.89000000
C27     36.59000000      4.23000000     59.71000000
C28     36.61000000      4.05000000     61.19000000
C29     35.21000000      3.57000000     61.49000000
C30     35.44000000      2.47000000     62.49000000
C31     36.27000000      2.94000000     63.67000000
C32     35.47000000      2.63000000     64.93000000
C33     36.34000000      2.57000000     66.19000000
C34     48.66000000     99.98000000     51.79000000
OS35     48.13000000     98.92000000     52.60000000
C36     48.63000000     98.86000000     53.86000000
O37     49.74000000     99.32000000     54.15000000
C38     47.94000000     97.76000000     54.65000000
C39     47.76000000     98.07000000     56.13000000
C40     46.31000000     98.32000000     56.54000000
C41     46.40000000     98.52000000     58.05000000
C42     45.08000000     98.80000000     58.76000000
C43     45.26000000     98.75000000     60.29000000
C44     46.54000000     99.02000000     61.13000000
C45     47.47000000      0.13000000     61.72000000
C46     47.29000000      1.39000000     62.63000000
C47     46.62000000      1.65000000     64.02000000
C48     47.17000000      1.17000000     65.38000000
C49     46.08000000      1.15000000     66.48000000
C50     46.45000000      0.12000000     67.56000000
C51     45.60000000      0.12000000     68.83000000
C52     46.37000000     99.38000000     69.92000000
 C1     54.04000000      0.46000000     45.37000000
 C2     55.61000000      2.16000000     44.78000000
 C3     53.20000000      2.68000000     44.97000000
 N4     54.34000000      1.90000000     45.45000000
 C5     54.59000000      2.32000000     46.85000000
 C6     53.59000000      1.96000000     47.95000000
OS7     53.58000000      0.56000000     48.18000000
 P8     52.36000000      0.03000000     49.03000000
OM9     51.48000000     99.98000000     47.84000000
OM10     52.88000000     98.77000000     49.48000000
OS11     52.36000000      1.23000000     50.11000000
C12     53.14000000      0.97000000     51.29000000
C13     54.24000000      1.92000000     51.86000000
OS14     55.27000000      1.11000000     52.48000000
C15     56.47000000      1.26000000     51.90000000
O16     56.56000000      1.81000000     50.80000000
C17     57.58000000      0.49000000     52.59000000
C18     58.40000000     99.73000000     51.54000000
C19     59.84000000     99.29000000     51.89000000
C20     60.37000000     99.90000000     53.19000000
C21     61.53000000     99.16000000     53.81000000
C22     62.09000000     99.87000000     55.05000000
C23     62.39000000     98.89000000     56.20000000
C24     63.11000000     99.57000000     57.32000000
C25     63.73000000     99.10000000     58.40000000
C26     64.40000000      0.03000000     59.37000000
C27     64.85000000     99.46000000     60.71000000
C28     63.82000000     98.57000000     61.38000000
C29     64.25000000     98.19000000     62.80000000
C30     64.91000000     99.31000000     63.58000000
C31     65.89000000     98.67000000     64.56000000
C32     66.62000000     99.63000000     65.50000000
C33     65.86000000    100.00000000     66.77000000
C34     53.65000000      2.98000000     52.82000000
OS35     54.42000000      4.05000000     53.44000000
C36     53.63000000      4.70000000     54.36000000
O37     52.50000000      4.27000000     54.29000000
C38     54.06000000      6.02000000     55.10000000
C39     54.42000000      6.60000000     56.54000000
C40     55.80000000      6.90000000     57.28000000
C41     56.79000000      6.26000000     58.39000000
C42     57.80000000      5.33000000     59.22000000
C43     58.00000000      4.08000000     60.21000000
C44     58.16000000      2.75000000     61.11000000
C45     58.14000000      1.42000000     62.02000000
C46     58.04000000      0.54000000     63.40000000
C47     57.41000000      0.03000000     64.79000000
C48     57.35000000      0.64000000     66.28000000
C49     56.07000000      1.13000000     67.07000000
C50     56.14000000      2.18000000     68.24000000
C51     54.82000000      2.92000000     68.60000000
C52     54.92000000      4.25000000     69.37000000
 C1     60.66000000      0.52000000     45.38000000
 C2     62.41000000      1.90000000     44.62000000
 C3     60.07000000      2.58000000     44.25000000
 N4     61.04000000      1.93000000     45.13000000
 C5     61.15000000      2.72000000     46.38000000
 C6     59.83000000      2.99000000     47.11000000
OS7     59.43000000      1.71000000     47.53000000
 P8     58.27000000      1.54000000     48.57000000
OM9     57.42000000      2.12000000     47.50000000
OM10     58.64000000      0.11000000     48.46000000
OS11     59.08000000      2.50000000     49.58000000
C12     60.31000000      2.05000000     50.15000000
C13     61.04000000      2.80000000     51.28000000
OS14     62.12000000      2.02000000     51.90000000
C15     63.17000000      1.58000000     51.15000000
O16     63.23000000      1.95000000     49.98000000
C17     64.18000000      0.63000000     51.85000000
C18     65.04000000     99.64000000     51.01000000
C19     66.45000000     98.89000000     51.09000000
C20     67.50000000     98.96000000     52.25000000
C21     68.06000000     97.85000000     53.16000000
C22     68.95000000     98.04000000     54.42000000
C23     69.10000000     96.85000000     55.42000000
C24     69.86000000     97.05000000     56.74000000
C25     70.85000000     96.45000000     57.48000000
C26     71.86000000     96.12000000     58.59000000
C27     72.01000000     96.95000000     59.90000000
C28     72.09000000     96.62000000     61.43000000
C29     73.12000000     95.91000000     62.37000000
C30     73.10000000     96.49000000     63.81000000
C31     73.83000000     95.94000000     65.06000000
C32     75.33000000     96.20000000     65.31000000
C33     75.65000000     96.49000000     66.79000000
C34     59.87000000      3.08000000     52.26000000
OS35     60.25000000      3.46000000     53.57000000
C36     60.50000000      4.77000000     53.49000000
O37     60.01000000      5.48000000     52.63000000
C38     61.21000000      5.26000000     54.70000000
C39     60.64000000      4.89000000     56.04000000
C40     61.81000000      4.36000000     56.84000000
C41     61.80000000      5.09000000     58.17000000
C42     62.78000000      4.38000000     59.09000000
C43     62.45000000      4.88000000     60.48000000
C44     62.54000000      4.07000000     61.78000000
C45     63.64000000      3.24000000     62.48000000
C46     63.54000000      3.44000000     64.00000000
C47     64.19000000      2.50000000     65.01000000
C48     63.43000000      2.42000000     66.34000000
C49     63.13000000      3.80000000     66.92000000
C50     62.46000000      3.83000000     68.30000000
C51     62.38000000      5.29000000     68.77000000
C52     61.58000000      5.45000000     70.06000000
 C1     67.42000000      0.52000000     45.18000000
 C2     68.86000000      2.03000000     44.10000000
 C3     66.47000000      2.51000000     44.25000000
 N4     67.65000000      1.95000000     44.91000000
 C5     67.98000000      2.75000000     46.13000000
 C6     66.85000000      2.99000000     47.14000000
OS7     66.55000000      1.69000000     47.51000000
 P8     65.28000000      1.43000000     48.34000000
OM9     64.45000000      2.10000000     47.28000000
OM10     65.53000000    100.00000000     48.06000000
OS11     66.00000000      2.29000000     49.55000000
C12     67.18000000      1.88000000     50.33000000
C13     67.90000000      2.16000000     51.72000000
OS14     69.18000000      1.39000000     51.75000000
C15     70.03000000      0.94000000     50.73000000
O16     69.84000000      1.17000000     49.52000000
C17     71.22000000      0.07000000     51.20000000
C18     72.61000000    100.00000000     50.48000000
C19     73.78000000     99.32000000     51.28000000
C20     75.30000000     99.68000000     51.25000000
C21     76.39000000     99.18000000     52.27000000
C22     76.97000000     99.99000000     53.50000000
C23     78.18000000     99.38000000     54.29000000
C24     78.57000000     99.80000000     55.71000000
C25     79.05000000     99.05000000     56.76000000
C26     79.36000000     99.44000000     58.21000000
C27     80.19000000     98.57000000     59.20000000
C28     79.46000000     98.33000000     60.53000000
C29     80.17000000     97.92000000     61.84000000
C30     80.62000000     99.11000000     62.71000000
C31     80.15000000     99.10000000     64.18000000
C32     80.68000000      0.34000000     64.91000000
C33     80.12000000      0.52000000     66.32000000
C34     66.91000000      2.04000000     52.96000000
OS35     66.77000000      2.69000000     54.29000000
C36     65.57000000      2.73000000     55.02000000
O37     64.52000000      2.36000000     54.50000000
C38     65.55000000      3.63000000     56.29000000
C39     66.49000000      4.89000000     56.46000000
C40     66.87000000      5.78000000     57.70000000
C41     68.30000000      5.80000000     58.36000000
C42     68.71000000      5.46000000     59.85000000
C43     69.65000000      4.37000000     60.48000000