#B3LYP/6-31+G(d) OPT FREQ

23400, Energy = 235234.50313506 au

0 1
 C1      3.42000000      2.43000000     45.13000000
 C2      1.33000000      3.39000000     44.42000000
 C3      1.73000000      1.00000000     44.09000000
 N4      1.98000000      2.18000000     44.93000000
 C5      1.35000000      1.96000000     46.24000000
 C6      1.77000000      0.70000000     46.98000000
OS7      3.10000000      0.74000000     47.46000000
 P8      3.46000000     99.40000000     48.22000000
OM9      3.34000000     98.62000000     46.95000000
OM10      4.80000000     99.71000000     48.70000000
OS11      2.15000000     99.32000000     49.15000000
C12      1.86000000      0.19000000     50.27000000
C13      0.60000000      1.12000000     50.18000000
OS14      0.80000000      2.55000000     49.75000000
C15      1.00000000      3.89000000     49.35000000
O16      0.87000000      4.14000000     48.14000000
C17      1.31000000      5.09000000     50.32000000
C18      1.72000000      6.09000000     51.47000000
C19      1.32000000      6.67000000     52.90000000
C20      0.37000000      7.54000000     53.80000000
C21      0.79000000      8.46000000     55.02000000
C22      0.68000000     10.03000000     54.98000000
C23      1.16000000     11.23000000     55.86000000
C24      0.37000000     11.79000000     57.04000000
C25     99.95000000     13.02000000     57.53000000
C26     99.49000000     14.44000000     58.04000000
C27     98.95000000     14.70000000     59.48000000
C28     99.44000000     15.68000000     60.55000000
C29     99.40000000     15.04000000     61.95000000
C30     99.58000000     16.03000000     63.11000000
C31      0.01000000     15.37000000     64.42000000
C32     99.15000000     14.16000000     64.79000000
C33     99.39000000     13.75000000     66.25000000
C34     99.59000000      0.65000000     51.30000000
OS35     99.90000000      0.38000000     52.71000000
C36     98.96000000     99.99000000     53.67000000
O37     97.90000000     99.47000000     53.41000000
C38     99.34000000      0.02000000     55.12000000
C39     98.47000000     99.08000000     55.96000000
C40     97.77000000     99.71000000     57.18000000
C41     98.42000000     99.80000000     58.58000000
C42     99.13000000      1.07000000     59.12000000
C43      0.06000000      1.81000000     60.09000000
C44     99.78000000      1.45000000     61.54000000
C45      0.04000000      2.59000000     62.51000000
C46     99.59000000      2.45000000     63.97000000
C47      0.59000000      2.35000000     65.13000000
C48      0.12000000      2.90000000     66.47000000
C49      0.81000000      2.39000000     67.74000000
C50     99.87000000      1.52000000     68.56000000
C51     98.71000000      2.36000000     69.10000000
C52     97.36000000      1.71000000     68.83000000
 C1      8.23000000      3.40000000     45.20000000
 C2      6.87000000      1.54000000     44.58000000
 C3      9.24000000      1.54000000     44.01000000
 N4      8.22000000      1.95000000     44.97000000
 C5      8.43000000      1.21000000     46.24000000
 C6      9.83000000      1.35000000     46.83000000
OS7      9.94000000      2.69000000     47.28000000
 P8     10.90000000      2.99000000     48.51000000
OM9     11.90000000      2.70000000     47.44000000
OM10     10.23000000      4.29000000     48.63000000
OS11     10.19000000      1.77000000     49.28000000
C12      8.96000000      2.07000000     49.92000000
C13      8.09000000      0.97000000     50.57000000
OS14      7.00000000      1.70000000     51.14000000
C15      5.96000000      2.07000000     50.37000000
O16      6.02000000      2.47000000     49.19000000
C17      5.07000000      2.56000000     51.45000000
C18      3.65000000      2.83000000     51.11000000
C19      3.01000000      2.66000000     52.48000000
C20      1.58000000      2.62000000     52.99000000
C21      0.45000000      3.63000000     53.18000000
C22     99.43000000      3.21000000     54.20000000
C23     99.33000000      3.86000000     55.55000000
C24     98.69000000      2.97000000     56.56000000
C25     97.50000000      2.97000000     57.19000000
C26     96.21000000      2.88000000     57.95000000
C27     96.07000000      2.12000000     59.27000000
C28     96.60000000      2.90000000     60.46000000
C29     96.69000000      2.07000000     61.73000000
C30     95.50000000      1.30000000     62.22000000
C31     95.61000000      1.25000000     63.74000000
C32     94.53000000      0.72000000     64.66000000
C33     94.82000000      0.83000000     66.16000000
C34      8.76000000      0.17000000     51.71000000
OS35      8.11000000     98.94000000     52.12000000
C36      8.37000000     98.44000000     53.38000000
O37      9.29000000     98.81000000     54.05000000
C38      7.67000000     97.18000000     53.82000000
C39      8.43000000     96.81000000     55.09000000
C40      7.79000000     97.33000000     56.37000000
C41      8.82000000     97.47000000     57.49000000
C42      8.17000000     97.97000000     58.77000000
C43      8.71000000     98.50000000     60.10000000
C44      9.01000000     99.95000000     60.49000000
C45      9.15000000     99.91000000     62.01000000
C46      9.70000000      1.08000000     62.83000000
C47      9.82000000      0.80000000     64.34000000
C48      8.86000000     99.82000000     65.04000000
C49      8.77000000     99.80000000     66.59000000
C50      8.10000000     98.51000000     67.10000000
C51      7.40000000     98.62000000     68.46000000
C52      8.33000000     98.38000000     69.65000000
 C1     14.31000000      3.42000000     45.54000000
 C2     13.71000000      1.26000000     44.81000000
 C3     16.08000000      1.85000000     44.89000000
 N4     14.75000000      2.01000000     45.49000000
 C5     14.74000000      1.51000000     46.89000000
 C6     15.88000000      1.95000000     47.81000000
OS7     16.02000000      3.36000000     47.77000000
 P8     17.12000000      3.95000000     48.71000000
OM9     18.03000000      3.50000000     47.61000000
OM10     16.80000000      5.37000000     48.81000000
OS11     16.83000000      2.99000000     49.96000000
C12     16.02000000      3.50000000     51.04000000
C13     14.88000000      2.57000000     51.54000000
OS14     13.74000000      3.37000000     51.92000000
C15     12.57000000      2.82000000     51.53000000
O16     12.55000000      2.02000000     50.59000000
C17     11.51000000      3.05000000     52.60000000
C18     10.04000000      3.45000000     52.49000000
C19      9.28000000      3.98000000     53.72000000
C20      9.31000000      3.14000000     54.98000000
C21      8.51000000      1.86000000     54.83000000
C22      8.52000000      0.86000000     56.00000000
C23      7.77000000      0.85000000     57.34000000
C24      6.39000000      0.34000000     57.73000000
C25      5.68000000      0.78000000     58.79000000
C26      4.31000000      0.58000000     59.37000000
C27      3.76000000      1.47000000     60.50000000
C28      3.04000000      0.58000000     61.51000000
C29      2.88000000      0.83000000     63.01000000
C30      2.41000000     99.56000000     63.74000000
C31      2.24000000     99.50000000     65.27000000
C32      2.90000000     98.26000000     65.89000000
C33      3.10000000     98.15000000     67.41000000
C34     15.27000000      1.70000000     52.76000000
OS35     14.96000000      0.28000000     52.88000000
C36     15.00000000     99.72000000     54.15000000
O37     15.00000000      0.45000000     55.13000000
C38     14.99000000     98.19000000     54.22000000
C39     15.84000000     97.50000000     55.31000000
C40     15.51000000     98.03000000     56.70000000
C41     15.71000000     97.13000000     57.91000000
C42     15.32000000     98.09000000     59.02000000
C43     15.58000000     97.83000000     60.49000000
C44     15.24000000     99.21000000     61.06000000
C45     15.35000000     99.34000000     62.56000000
C46     14.29000000      0.35000000     62.94000000
C47     14.19000000      0.32000000     64.44000000
C48     15.09000000     99.21000000     65.02000000
C49     14.95000000     99.30000000     66.53000000
C50     15.51000000     98.17000000     67.39000000
C51     14.75000000     98.28000000     68.71000000
C52     15.44000000     97.63000000     69.91000000
 C1     22.72000000      3.00000000     45.30000000
 C2     20.44000000      3.14000000     44.69000000
 C3     21.68000000      1.07000000     44.22000000
 N4     21.48000000      2.21000000     45.13000000
 C5     20.99000000      1.70000000     46.43000000
 C6     21.78000000      0.56000000     47.10000000
OS7     23.13000000      0.99000000     47.18000000
 P8     24.21000000      0.17000000     47.99000000
OM9     23.95000000     99.11000000     46.99000000
OM10     25.13000000      1.25000000     47.60000000
OS11     23.24000000      0.36000000     49.22000000
C12     23.39000000      1.58000000     49.96000000
C13     22.64000000      1.62000000     51.30000000
OS14     22.57000000      3.10000000     51.78000000
C15     21.82000000      4.32000000     52.07000000
O16     20.62000000      4.50000000     51.89000000
C17     22.15000000      5.65000000     52.68000000
C18     20.70000000      6.22000000     52.69000000
C19     20.58000000      7.48000000     53.55000000
C20     19.37000000      7.75000000     54.45000000
C21     19.82000000      7.74000000     55.92000000
C22     19.29000000      8.92000000     56.68000000
C23     19.57000000      9.28000000     58.14000000
C24     19.46000000     10.72000000     58.62000000
C25     19.09000000     12.02000000     58.52000000
C26     19.26000000     13.24000000     59.41000000
C27     19.43000000     14.49000000     60.32000000
C28     19.36000000     14.70000000     61.86000000
C29     18.27000000     14.71000000     62.97000000
C30     17.12000000     15.75000000     62.95000000
C31     15.80000000     15.63000000     63.74000000
C32     15.75000000     16.05000000     65.20000000
C33     14.30000000     16.25000000     65.64000000
C34     22.72000000      0.11000000     51.93000000
OS35     21.64000000     99.20000000     52.55000000
C36     21.64000000     98.11000000     53.50000000
O37     22.66000000     97.55000000     53.84000000
C38     20.41000000     97.62000000     54.33000000
C39     20.37000000     97.59000000     55.91000000
C40     19.23000000     98.13000000     56.85000000
C41     19.53000000     98.70000000     58.28000000
C42     18.34000000     99.31000000     59.05000000
C43     18.35000000      0.19000000     60.31000000
C44     19.58000000      0.25000000     61.18000000
C45     19.07000000      0.65000000     62.56000000
C46     20.27000000      0.94000000     63.43000000
C47     19.84000000      1.55000000     64.75000000
C48     19.74000000      0.54000000     65.89000000
C49     19.51000000      1.34000000     67.17000000
C50     18.81000000      0.50000000     68.24000000
C51     17.86000000      1.38000000     69.05000000
C52     17.43000000      0.68000000     70.33000000
 C1     27.59000000      3.27000000     45.32000000
 C2     26.42000000      1.31000000     44.74000000
 C3     28.78000000      1.48000000     44.14000000
 N4     27.74000000      1.82000000     45.11000000
 C5     28.03000000      1.12000000     46.39000000
 C6     29.42000000      1.36000000     46.98000000
OS7     29.48000000      2.75000000     47.29000000
 P8     30.38000000      3.18000000     48.52000000
OM9     31.46000000      2.96000000     47.50000000
OM10     29.70000000      4.47000000     48.57000000
OS11     29.69000000      2.01000000     49.39000000
C12     28.49000000      2.22000000     50.12000000
C13     28.05000000      1.15000000     51.17000000
OS14     27.48000000      1.84000000     52.30000000
C15     26.18000000      1.99000000     52.05000000
O16     25.81000000      1.26000000     51.14000000
C17     25.38000000      2.32000000     53.30000000
C18     24.65000000      3.60000000     53.66000000
C19     23.53000000      3.32000000     54.70000000
C20     22.41000000      3.94000000     55.61000000
C21     21.05000000      4.71000000     55.75000000
C22     19.64000000      4.31000000     55.21000000
C23     18.19000000      4.87000000     55.32000000
C24     17.24000000      4.46000000     56.41000000
C25     16.87000000      4.98000000     57.58000000
C26     15.94000000      4.24000000     58.47000000
C27     16.50000000      3.56000000     59.73000000
C28     16.85000000      4.61000000     60.77000000
C29     16.23000000      4.43000000     62.16000000
C30     16.51000000      3.31000000     63.16000000
C31     15.48000000      3.58000000     64.25000000
C32     15.75000000      3.30000000     65.72000000
C33     16.67000000      2.11000000     65.72000000
C34     29.11000000      0.06000000     51.52000000
OS35     28.92000000     99.08000000     52.57000000
C36     29.78000000     98.94000000     53.65000000
O37     30.82000000     99.56000000     53.83000000
C38     29.34000000     97.78000000     54.53000000
C39     29.41000000     97.98000000     56.05000000
C40     28.15000000     97.43000000     56.73000000
C41     27.96000000     98.03000000     58.13000000
C42     26.55000000     97.87000000     58.68000000
C43     26.53000000     97.83000000     60.21000000
C44     26.30000000     99.15000000     60.94000000
C45     26.52000000     98.95000000     62.44000000
C46     25.67000000     99.90000000     63.28000000
C47     25.76000000     99.70000000     64.80000000
C48     26.91000000      0.39000000     65.54000000
C49     26.71000000      0.29000000     67.06000000
C50     27.30000000     99.01000000     67.63000000
C51     26.81000000     98.73000000     69.05000000
C52     27.65000000     97.62000000     69.68000000
 C1     34.35000000      3.38000000     45.30000000
 C2     32.92000000      1.77000000     44.37000000
 C3     35.34000000      1.50000000     44.13000000
 N4     34.23000000      1.94000000     44.97000000
 C5     34.16000000      1.09000000     46.19000000
 C6     35.48000000      0.89000000     46.95000000
OS7     35.80000000      2.22000000     47.31000000
 P8     36.89000000      2.63000000     48.34000000
OM9     37.80000000      2.19000000     47.23000000
OM10     36.21000000      3.94000000     48.19000000
OS11     36.24000000      1.50000000     49.30000000
C12     35.10000000      1.78000000     50.13000000
C13     34.56000000      0.78000000     51.17000000
OS14     33.48000000      1.36000000     51.94000000
C15     32.29000000      1.60000000     51.37000000
O16     32.16000000      1.61000000     50.15000000
C17     31.34000000      2.19000000     52.40000000
C18     30.90000000      3.61000000     52.11000000
C19     29.60000000      4.03000000     52.79000000
C20     29.45000000      3.39000000     54.16000000
C21     28.10000000      3.80000000     54.70000000
C22     28.11000000      4.14000000     56.17000000
C23     26.77000000      4.66000000     56.64000000
C24     25.63000000      3.83000000     57.08000000
C25     24.92000000      3.96000000     58.20000000
C26     23.81000000      3.12000000     58.70000000
C27     23.64000000      3.61000000     60.12000000
C28     23.69000000      2.51000000     61.15000000
C29     23.62000000      3.30000000     62.44000000
C30     23.29000000      2.53000000     63.71000000
C31     23.07000000      3.56000000     64.81000000
C32     22.59000000      2.95000000     66.12000000
C33     23.25000000      1.60000000     66.40000000
C34     35.66000000      0.39000000     52.16000000
OS35     35.22000000     99.38000000     53.07000000
C36     36.09000000     99.06000000     54.05000000
O37     37.26000000     99.44000000     54.05000000
C38     35.52000000     97.92000000     54.87000000
C39     35.20000000     98.33000000     56.31000000
C40     33.82000000     98.98000000     56.46000000
C41     33.54000000     99.13000000     57.96000000
C42     32.08000000     99.44000000     58.26000000
C43     31.73000000     99.19000000     59.73000000
C44     32.41000000      0.16000000     60.70000000
C45     31.84000000     99.92000000     62.10000000
C46     32.50000000      0.76000000     63.20000000
C47     31.94000000      0.35000000     64.56000000
C48     32.93000000      0.63000000     65.70000000
C49     32.43000000      0.09000000     67.04000000
C50     33.56000000     99.51000000     67.88000000
C51     32.97000000     98.70000000     69.03000000
C52     34.04000000     97.94000000     69.82000000
 C1     41.13000000      3.47000000     45.32000000
 C2     39.45000000      1.99000000     44.60000000
 C3     41.80000000      1.40000000     44.23000000
 N4     40.81000000      2.04000000     45.10000000
 C5     40.74000000      1.31000000     46.39000000
 C6     42.07000000      1.09000000     47.13000000
OS7     42.53000000      2.39000000     47.43000000
 P8     43.54000000      2.61000000     48.61000000
OM9     44.49000000      2.06000000     47.59000000
OM10     43.17000000      4.02000000     48.61000000
OS11     42.62000000      1.64000000     49.52000000
C12     41.61000000      2.25000000     50.34000000
C13     40.77000000      1.36000000     51.31000000
OS14     39.92000000      2.22000000     52.11000000
C15     38.77000000      2.47000000     51.48000000
O16     38.61000000      1.99000000     50.37000000
C17     37.77000000      3.32000000     52.26000000
C18     36.93000000      4.21000000     51.33000000
C19     35.58000000      4.81000000     51.79000000
C20     34.33000000      4.16000000     52.45000000
C21     34.16000000      3.90000000     53.97000000
C22     32.92000000      3.69000000     54.91000000
C23     32.14000000      4.91000000     55.48000000
C24     31.35000000      4.81000000     56.75000000
C25     30.92000000      5.78000000     57.58000000
C26     30.18000000      5.50000000     58.86000000
C27     30.28000000      6.59000000     59.93000000
C28     30.56000000      5.95000000     61.29000000
C29     29.64000000      5.85000000     62.50000000
C30     30.40000000      5.13000000     63.62000000
C31     29.94000000      5.57000000     65.01000000
C32     30.38000000      4.67000000     66.17000000
C33     30.26000000      3.16000000     65.91000000
C34     41.68000000      0.51000000     52.20000000
OS35     41.14000000     99.32000000     52.80000000
C36     41.42000000     99.19000000     54.12000000
O37     42.12000000     99.98000000     54.75000000
C38     41.14000000     97.80000000     54.61000000
C39     41.20000000     97.80000000     56.13000000
C40     39.97000000     98.58000000     56.57000000
C41     39.96000000     98.70000000     58.08000000
C42     38.56000000     99.19000000     58.42000000
C43     38.33000000     99.01000000     59.90000000
C44     39.42000000     99.73000000     60.68000000
C45     39.00000000     99.66000000     62.14000000
C46     39.68000000      0.78000000     62.89000000
C47     39.16000000      0.74000000     64.31000000
C48     39.79000000     99.61000000     65.11000000
C49     39.39000000     99.83000000     66.56000000
C50     40.05000000     98.85000000     67.52000000
C51     39.53000000     99.13000000     68.93000000
C52     40.17000000     98.17000000     69.94000000
 C1     47.24000000      3.43000000     45.41000000
 C2     45.96000000      1.59000000     44.72000000
 C3     48.37000000      1.60000000     44.24000000
 N4     47.30000000      1.98000000     45.17000000
 C5     47.46000000      1.24000000     46.44000000
 C6     48.85000000      1.31000000     47.08000000
OS7     49.08000000      2.69000000     47.34000000
 P8     49.96000000      3.06000000     48.60000000
OM9     51.05000000      2.63000000     47.66000000
OM10     49.46000000      4.44000000     48.62000000
OS11     49.10000000      2.02000000     49.46000000
C12     47.96000000      2.40000000     50.22000000
C13     47.39000000      1.34000000     51.20000000
OS14     46.54000000      2.01000000     52.17000000
C15     45.28000000      2.13000000     51.71000000
O16     45.02000000      1.54000000     50.67000000
C17     44.27000000      2.77000000     52.64000000
C18     43.72000000      4.11000000     52.16000000
C19     42.42000000      4.54000000     52.85000000
C20     42.12000000      3.77000000     54.13000000
C21     40.77000000      4.22000000     54.67000000
C22     40.12000000      3.11000000     55.48000000
C23     39.81000000      3.66000000     56.87000000
C24     38.95000000      2.75000000     57.68000000
C25     38.22000000      3.13000000     58.72000000
C26     37.29000000      2.22000000     59.43000000
C27     36.68000000      2.79000000     60.69000000
C28     37.69000000      3.54000000     61.52000000
C29     36.93000000      3.89000000     62.78000000
C30     36.07000000      2.66000000     63.06000000
C31     35.32000000      2.90000000     64.36000000
C32     36.31000000      2.88000000     65.51000000
C33     36.31000000      1.50000000     66.15000000
C34     48.52000000      0.49000000     51.84000000
OS35     48.24000000     99.37000000     52.71000000
C36     49.07000000     99.13000000     53.78000000
O37     50.20000000     99.60000000     53.90000000
C38     48.54000000     97.95000000     54.59000000
C39     48.55000000     98.14000000     56.11000000
C40     47.48000000     97.28000000     56.80000000
C41     47.30000000     97.64000000     58.27000000
C42     45.83000000     97.58000000     58.68000000
C43     45.64000000     97.69000000     60.20000000
C44     45.90000000     99.07000000     60.79000000
C45     45.57000000     98.98000000     62.27000000
C46     45.39000000      0.33000000     62.95000000
C47     44.92000000      0.06000000     64.38000000
C48     45.89000000     99.12000000     65.10000000
C49     45.49000000     98.94000000     66.56000000
C50     46.54000000     98.14000000     67.33000000
C51     46.17000000     98.10000000     68.81000000
C52     47.36000000     97.69000000     69.67000000
 C1     53.87000000      3.50000000     45.34000000
 C2     52.44000000      1.74000000     44.76000000
 C3     54.80000000      1.57000000     44.13000000
 N4     53.82000000      2.04000000     45.12000000
 C5     54.02000000      1.32000000     46.40000000
 C6     55.46000000      1.35000000     46.95000000
OS7     55.76000000      2.70000000     47.23000000
 P8     56.57000000      3.02000000     48.55000000
OM9     57.68000000      2.62000000     47.64000000
OM10     56.08000000      4.39000000     48.55000000
OS11     55.67000000      1.96000000     49.38000000
C12     54.45000000      2.31000000     50.04000000
C13     53.77000000      1.21000000     50.90000000
OS14     53.03000000      1.90000000     51.91000000
C15     51.75000000      2.03000000     51.57000000
O16     51.41000000      1.53000000     50.51000000
C17     50.90000000      2.70000000     52.64000000
C18     50.26000000      4.04000000     52.30000000
C19     48.86000000      4.09000000     52.91000000
C20     48.78000000      3.56000000     54.34000000
C21     47.42000000      3.22000000     55.00000000
C22     46.08000000      4.00000000     55.14000000
C23     45.51000000      4.96000000     56.21000000
C24     44.37000000      4.37000000     56.99000000
C25     43.53000000      4.80000000     57.93000000
C26     42.62000000      3.80000000     58.59000000
C27     41.92000000      4.20000000     59.88000000
C28     42.93000000      4.78000000     60.85000000
C29     42.40000000      4.99000000     62.26000000
C30     42.10000000      3.71000000     63.04000000
C31     41.75000000      4.18000000     64.46000000
C32     41.33000000      3.13000000     65.48000000
C33     42.48000000      2.18000000     65.82000000
C34     54.75000000      0.17000000     51.50000000
OS35     54.34000000     99.19000000     52.49000000
C36     55.04000000     99.22000000     53.67000000
O37     56.02000000     99.92000000     53.88000000
C38     54.72000000     98.09000000     54.60000000
C39     54.84000000     98.52000000     56.05000000
C40     53.50000000     99.06000000     56.53000000
C41     53.39000000     98.96000000     58.05000000
C42     51.90000000     98.96000000     58.38000000
C43     51.59000000     98.68000000     59.84000000
C44     52.29000000     99.67000000     60.76000000
C45     51.73000000     99.59000000     62.18000000
C46     52.46000000      0.64000000     63.01000000
C47     51.99000000      0.88000000     64.44000000
C48     52.30000000     99.74000000     65.40000000
C49     52.29000000      0.24000000     66.85000000
C50     52.98000000     99.23000000     67.76000000
C51     53.07000000     99.68000000     69.21000000
C52     53.94000000     98.70000000     70.00000000
 C1     60.31000000      3.43000000     45.24000000
 C2     59.03000000      1.59000000     44.56000000
 C3     61.38000000      1.75000000     43.84000000
 N4     60.39000000      1.99000000     44.90000000
 C5     60.72000000      1.17000000     46.08000000
 C6     62.11000000      1.34000000     46.68000000
OS7     62.09000000      2.65000000     47.21000000
 P8     62.97000000      3.04000000     48.46000000
OM9     64.01000000      2.89000000     47.40000000
OM10     62.05000000      4.19000000     48.51000000
OS11     62.44000000      1.69000000     49.19000000
C12     61.16000000      1.70000000     49.85000000
C13     60.72000000      0.52000000     50.77000000
OS14     59.65000000      1.04000000     51.61000000
C15     58.43000000      1.37000000     51.10000000
O16     58.11000000      0.95000000     49.99000000
C17     57.48000000      1.90000000     52.17000000
C18     57.00000000      3.36000000     52.17000000
C19     55.64000000      3.57000000     52.86000000
C20     55.28000000      2.77000000     54.12000000
C21     53.81000000      2.92000000     54.53000000
C22     53.32000000      2.42000000     55.89000000
C23     51.83000000      2.73000000     56.02000000
C24     51.14000000      2.06000000     57.17000000
C25     50.19000000      2.46000000     58.03000000
C26     49.69000000      1.53000000     59.09000000
C27     49.23000000      2.05000000     60.45000000
C28     50.21000000      2.86000000     61.28000000
C29     49.55000000      3.18000000     62.62000000
C30     48.89000000      1.93000000     63.20000000
C31     48.12000000      2.22000000     64.48000000
C32     48.90000000      2.14000000     65.79000000
C33     48.89000000      0.70000000     66.30000000
C34     61.90000000     99.96000000     51.63000000
OS35     61.77000000     98.69000000     52.34000000
C36     62.32000000     98.54000000     53.60000000
O37     63.00000000     99.42000000     54.10000000
C38     61.96000000     97.28000000     54.43000000
C39     62.19000000     97.37000000     55.96000000
C40     60.92000000     97.31000000     56.83000000
C41     60.95000000     97.92000000     58.25000000
C42     59.73000000     98.80000000     58.61000000
C43     59.79000000     99.33000000     60.04000000
C44     58.75000000      0.34000000     60.53000000
C45     58.63000000      0.20000000     62.06000000
C46     59.26000000      1.33000000     62.87000000
C47     59.15000000      1.10000000     64.38000000
C48     59.68000000     99.73000000     64.75000000
C49     60.22000000     99.61000000     66.17000000
C50     59.23000000     99.67000000     67.32000000
C51     60.04000000     99.73000000     68.61000000
C52     61.16000000     98.70000000     68.55000000
 C1     66.96000000      3.44000000     45.23000000
 C2     65.98000000      1.33000000     44.78000000
 C3     68.39000000      1.46000000     45.11000000
 N4     67.07000000      2.00000000     45.48000000
 C5     66.82000000      1.77000000     46.93000000
 C6     67.95000000      2.14000000     47.91000000
OS7     68.45000000      3.43000000     47.61000000
 P8     69.59000000      4.00000000     48.53000000
OM9     70.68000000      3.72000000     47.57000000
OM10     69.14000000      5.38000000     48.56000000
OS11     69.46000000      3.12000000     49.86000000
C12     68.57000000      3.60000000     50.89000000
C13     67.75000000      2.56000000     51.70000000
OS14     66.48000000      3.24000000     51.99000000
C15     65.41000000      3.21000000     51.12000000
O16     65.38000000      2.43000000     50.16000000
C17     64.20000000      4.04000000     51.57000000
C18     63.00000000      3.25000000     52.13000000
C19     61.59000000      3.87000000     52.32000000
C20     60.79000000      3.11000000     53.41000000
C21     59.63000000      3.83000000     54.14000000
C22     58.83000000      3.08000000     55.22000000
C23     57.78000000      3.61000000     56.19000000
C24     57.24000000      2.53000000     57.09000000
C25     56.28000000      2.66000000     58.01000000
C26     55.76000000      1.56000000     58.90000000
C27     55.05000000      2.09000000     60.14000000
C28     55.98000000      3.04000000     60.88000000
C29     55.58000000      3.19000000     62.35000000
C30     55.66000000      1.81000000     62.97000000
C31     55.61000000      1.79000000     64.49000000
C32     55.77000000      0.32000000     64.89000000
C33     56.00000000      0.19000000     66.39000000
C34     68.50000000      1.82000000     52.90000000
OS35     68.58000000      0.42000000     53.43000000
C36     69.51000000     99.76000000     54.24000000
O37     70.71000000     99.98000000     54.10000000
C38     69.09000000     98.39000000     54.82000000
C39     69.32000000     98.07000000     56.33000000
C40     68.61000000     96.82000000     56.95000000
C41     68.29000000     96.87000000     58.47000000
C42     66.81000000     96.65000000     58.87000000
C43     66.44000000     96.88000000     60.34000000