#B3LYP/6-31+G(d) OPT FREQ

23400, Energy = 311410.39698756 au

0 1
 C1      0.63000000      2.62000000     45.26000000
 C2      1.30000000      0.45000000     44.68000000
 C3      2.70000000      2.33000000     44.06000000
 N4      1.81000000      1.76000000     45.07000000
 C5      2.53000000      1.57000000     46.36000000
 C6      3.40000000      2.76000000     46.86000000
OS7      2.55000000      3.90000000     46.93000000
 P8      2.09000000      4.49000000     48.35000000
OM9      3.18000000      5.39000000     47.90000000
OM10      0.79000000      4.33000000     47.68000000
OS11      2.52000000      3.19000000     49.15000000
C12      1.57000000      2.49000000     49.95000000
C13      2.10000000      1.24000000     50.71000000
OS14      1.16000000      1.05000000     51.79000000
C15     99.86000000      0.69000000     51.60000000
O16     99.47000000      0.40000000     50.47000000
C17     99.24000000      0.42000000     52.98000000
C18     97.76000000      0.13000000     53.24000000
C19     97.55000000     99.08000000     54.33000000
C20     96.99000000     97.71000000     53.87000000
C21     95.67000000     96.95000000     53.81000000
C22     95.57000000     96.12000000     55.07000000
C23     94.16000000     95.78000000     55.53000000
C24     94.38000000     94.89000000     56.69000000
C25     93.93000000     94.88000000     57.93000000
C26     94.51000000     93.84000000     58.80000000
C27     93.92000000     93.66000000     60.16000000
C28     94.74000000     94.28000000     61.26000000
C29     93.90000000     94.17000000     62.51000000
C30     94.71000000     94.26000000     63.78000000
C31     93.73000000     94.10000000     64.93000000
C32     94.57000000     93.99000000     66.18000000
C33     95.75000000     93.09000000     65.81000000
C34      3.63000000      1.34000000     51.11000000
OS35      4.51000000      0.63000000     52.07000000
C36      5.27000000      1.02000000     53.18000000
O37      5.50000000      2.19000000     53.46000000
C38      5.79000000     99.92000000     54.16000000
C39      5.66000000     98.51000000     54.83000000
C40      4.61000000     97.83000000     55.77000000
C41      4.49000000     97.80000000     57.30000000
C42      3.18000000     98.28000000     57.97000000
C43      3.32000000     98.30000000     59.49000000
C44      2.20000000     98.53000000     60.52000000
C45      2.91000000     98.44000000     61.88000000
C46      2.12000000     98.16000000     63.16000000
C47      2.90000000     97.83000000     64.45000000
C48      3.92000000     98.86000000     65.00000000
C49      4.09000000     99.35000000     66.46000000
C50      4.25000000     98.54000000     67.75000000
C51      3.47000000     99.23000000     68.88000000
C52      3.87000000     98.72000000     70.25000000
 C1      8.43000000      3.51000000     45.26000000
 C2      6.85000000      1.96000000     44.42000000
 C3      9.20000000      1.68000000     43.88000000
 N4      8.22000000      2.10000000     44.89000000
 C5      8.33000000      1.23000000     46.08000000
 C6      9.75000000      1.05000000     46.62000000
OS7     10.18000000      2.30000000     47.12000000
 P8     11.14000000      2.15000000     48.37000000
OM9     12.13000000      1.62000000     47.41000000
OM10     11.16000000      3.55000000     48.78000000
OS11     10.01000000      1.28000000     49.10000000
C12      9.06000000      2.03000000     49.85000000
C13      8.01000000      1.27000000     50.68000000
OS14      7.20000000      2.35000000     51.25000000
C15      6.41000000      3.24000000     50.54000000
O16      6.08000000      3.01000000     49.36000000
C17      5.80000000      4.32000000     51.45000000
C18      4.28000000      4.47000000     51.23000000
C19      3.06000000      4.51000000     52.20000000
C20      2.72000000      3.68000000     53.46000000
C21      1.21000000      3.50000000     53.72000000
C22      0.73000000      3.26000000     55.16000000
C23     99.22000000      3.05000000     55.28000000
C24     98.64000000      3.15000000     56.66000000
C25     99.29000000      3.26000000     57.82000000
C26     98.64000000      3.42000000     59.17000000
C27     99.27000000      2.57000000     60.26000000
C28     98.91000000      2.95000000     61.70000000
C29     97.50000000      2.65000000     62.20000000
C30     97.03000000      3.34000000     63.49000000
C31     96.92000000      2.55000000     64.78000000
C32     96.62000000      3.39000000     66.02000000
C33     96.05000000      2.59000000     67.19000000
C34      8.77000000      0.31000000     51.66000000
OS35      8.32000000     99.17000000     52.46000000
C36      9.07000000     98.87000000     53.58000000
O37      9.93000000     99.64000000     54.00000000
C38      8.75000000     97.53000000     54.27000000
C39      9.29000000     97.31000000     55.70000000
C40      8.30000000     97.54000000     56.85000000
C41      8.88000000     97.43000000     58.27000000
C42      8.52000000     98.23000000     59.55000000
C43      7.30000000     98.12000000     60.48000000
C44      7.38000000     99.29000000     61.47000000
C45      6.39000000     99.52000000     62.61000000
C46      7.11000000      0.44000000     63.60000000
C47      6.79000000      0.49000000     65.09000000
C48      7.88000000      0.99000000     66.04000000
C49      7.58000000      0.72000000     67.52000000
C50      7.98000000     99.32000000     67.97000000
C51      7.62000000     99.05000000     69.43000000
C52      7.89000000     97.60000000     69.83000000
 C1     14.45000000      3.34000000     45.43000000
 C2     13.50000000      1.29000000     44.78000000
 C3     15.79000000      1.77000000     44.13000000
 N4     14.76000000      1.93000000     45.15000000
 C5     15.18000000      1.23000000     46.39000000
 C6     16.57000000      1.59000000     46.95000000
OS7     16.51000000      2.97000000     47.26000000
 P8     17.01000000      3.48000000     48.69000000
OM9     18.27000000      3.36000000     47.89000000
OM10     15.96000000      4.47000000     48.45000000
OS11     16.34000000      2.19000000     49.37000000
C12     15.09000000      2.27000000     50.05000000
C13     14.65000000      1.05000000     50.92000000
OS14     13.72000000      1.62000000     51.86000000
C15     12.44000000      1.59000000     51.43000000
O16     12.21000000      0.79000000     50.52000000
C17     11.39000000      2.30000000     52.28000000
C18     10.85000000      3.74000000     52.16000000
C19      9.98000000      4.11000000     53.38000000
C20      8.93000000      3.07000000     53.78000000
C21      8.57000000      2.97000000     55.27000000
C22      8.18000000      1.51000000     55.64000000
C23      8.04000000      0.95000000     57.08000000
C24      6.79000000      0.29000000     57.66000000
C25      5.82000000      0.38000000     58.62000000
C26      5.11000000      1.02000000     59.80000000
C27      3.68000000      1.51000000     60.08000000
C28      3.55000000      1.77000000     61.59000000
C29      2.16000000      1.70000000     62.25000000
C30      2.24000000      1.67000000     63.78000000
C31      1.02000000      1.08000000     64.47000000
C32      1.23000000      0.76000000     65.96000000
C33      0.97000000     99.35000000     66.52000000
C34     15.85000000      0.23000000     51.50000000
OS35     15.92000000     99.10000000     52.43000000
C36     16.93000000     98.88000000     53.36000000
O37     17.89000000     99.60000000     53.61000000
C38     16.71000000     97.57000000     54.11000000
C39     16.94000000     97.62000000     55.64000000
C40     15.97000000     96.66000000     56.36000000
C41     15.94000000     96.62000000     57.91000000
C42     15.38000000     97.79000000     58.72000000
C43     15.84000000     97.95000000     60.16000000
C44     15.15000000     99.07000000     60.92000000
C45     15.71000000     99.19000000     62.34000000
C46     14.58000000     99.65000000     63.26000000
C47     15.06000000      0.22000000     64.58000000
C48     15.81000000     99.15000000     65.35000000
C49     15.47000000     99.26000000     66.84000000
C50     15.48000000     97.84000000     67.39000000
C51     14.49000000     97.60000000     68.51000000
C52     15.11000000     97.21000000     69.85000000
 C1     20.88000000      3.34000000     45.36000000
 C2     19.99000000      1.33000000     44.57000000
 C3     22.30000000      1.87000000     44.02000000
 N4     21.23000000      1.94000000     45.02000000
 C5     21.64000000      1.17000000     46.22000000
 C6     23.00000000      1.52000000     46.83000000
OS7     22.84000000      2.86000000     47.24000000
 P8     23.52000000      3.35000000     48.57000000
OM9     24.70000000      3.32000000     47.65000000
OM10     22.63000000      4.51000000     48.53000000
OS11     22.93000000      2.03000000     49.32000000
C12     21.58000000      1.93000000     49.82000000
C13     21.14000000      0.79000000     50.79000000
OS14     20.18000000      1.34000000     51.70000000
C15     18.99000000      1.68000000     51.21000000
O16     18.63000000      1.21000000     50.12000000
C17     18.16000000      2.25000000     52.34000000
C18     17.48000000      3.60000000     52.18000000
C19     16.18000000      3.57000000     52.96000000
C20     16.13000000      2.82000000     54.29000000
C21     14.66000000      2.56000000     54.57000000
C22     13.18000000      2.29000000     54.86000000
C23     11.85000000      2.32000000     55.63000000
C24     11.49000000      1.45000000     56.77000000
C25     11.10000000      1.84000000     57.97000000
C26     10.84000000      0.80000000     58.98000000
C27      9.89000000      1.41000000     59.99000000
C28     10.66000000      2.39000000     60.83000000
C29     10.44000000      1.86000000     62.22000000
C30     10.86000000      0.42000000     62.34000000
C31     10.37000000     99.93000000     63.68000000
C32      9.83000000     98.52000000     63.48000000
C33      9.24000000     97.98000000     64.76000000
C34     22.29000000      0.30000000     51.67000000
OS35     22.09000000     99.19000000     52.56000000
C36     22.09000000     99.38000000     53.91000000
O37     22.51000000      0.38000000     54.49000000
C38     22.20000000     97.96000000     54.43000000
C39     22.89000000     97.77000000     55.77000000
C40     21.86000000     98.31000000     56.73000000
C41     22.21000000     98.07000000     58.17000000
C42     21.28000000     99.01000000     58.89000000
C43     21.41000000     98.79000000     60.38000000
C44     20.44000000     99.76000000     61.01000000
C45     20.31000000     99.37000000     62.46000000
C46     19.54000000      0.46000000     63.17000000
C47     19.33000000    100.00000000     64.60000000
C48     20.61000000     99.41000000     65.19000000
C49     20.48000000     99.48000000     66.70000000
C50     21.39000000     98.48000000     67.38000000
C51     21.07000000     98.47000000     68.87000000
C52     21.45000000     97.12000000     69.49000000
 C1     27.93000000      3.41000000     45.38000000
 C2     26.46000000      1.75000000     44.59000000
 C3     28.86000000      1.51000000     44.18000000
 N4     27.81000000      1.96000000     45.10000000
 C5     27.87000000      1.14000000     46.33000000
 C6     29.24000000      1.05000000     47.01000000
OS7     29.50000000      2.39000000     47.39000000
 P8     30.52000000      2.80000000     48.51000000
OM9     31.48000000      2.40000000     47.45000000
OM10     29.84000000      4.10000000     48.40000000
OS11     29.86000000      1.65000000     49.43000000
C12     28.62000000      1.94000000     50.09000000
C13     28.02000000      0.97000000     51.12000000
OS14     26.90000000      1.62000000     51.81000000
C15     25.77000000      2.07000000     51.18000000
O16     25.63000000      1.92000000     49.96000000
C17     24.68000000      2.50000000     52.16000000
C18     24.01000000      3.87000000     52.02000000
C19     22.48000000      3.90000000     52.12000000
C20     21.64000000      3.49000000     53.33000000
C21     20.43000000      4.41000000     53.56000000
C22     19.65000000      4.06000000     54.84000000
C23     18.64000000      5.09000000     55.34000000
C24     18.05000000      4.58000000     56.62000000
C25     17.40000000      5.19000000     57.61000000
C26     17.00000000      4.46000000     58.85000000
C27     16.95000000      5.26000000     60.15000000
C28     17.28000000      4.32000000     61.31000000
C29     16.94000000      4.89000000     62.68000000
C30     17.69000000      4.19000000     63.82000000
C31     17.20000000      2.96000000     64.57000000
C32     17.30000000      3.33000000     66.05000000
C33     17.47000000      2.14000000     66.99000000
C34     29.17000000      0.51000000     52.06000000
OS35     28.93000000     99.32000000     52.85000000
C36     29.71000000     99.07000000     53.95000000
O37     30.89000000     99.41000000     54.04000000
C38     29.06000000     97.97000000     54.79000000
C39     28.98000000     98.29000000     56.29000000
C40     27.55000000     98.08000000     56.81000000
C41     27.31000000     98.35000000     58.30000000
C42     25.81000000     98.25000000     58.62000000
C43     25.56000000     98.03000000     60.11000000
C44     25.84000000     99.27000000     60.95000000
C45     25.68000000     98.98000000     62.45000000
C46     25.55000000      0.30000000     63.19000000
C47     25.30000000      0.16000000     64.70000000
C48     26.57000000      0.01000000     65.53000000
C49     26.27000000      0.31000000     67.01000000
C50     27.23000000     99.60000000     67.96000000
C51     26.65000000     98.23000000     68.31000000
C52     27.51000000     97.47000000     69.31000000
 C1     34.82000000      3.46000000     45.19000000
 C2     33.23000000      1.78000000     44.62000000
 C3     35.62000000      1.21000000     44.79000000
 N4     34.51000000      2.02000000     45.28000000
 C5     34.25000000      1.60000000     46.68000000
 C6     35.40000000      1.82000000     47.66000000
OS7     35.53000000      3.21000000     47.89000000
 P8     36.75000000      3.63000000     48.79000000
OM9     37.70000000      3.44000000     47.65000000
OM10     36.17000000      4.95000000     48.94000000
OS11     36.41000000      2.53000000     49.91000000
C12     35.29000000      2.83000000     50.76000000
C13     34.53000000      1.75000000     51.55000000
OS14     33.58000000      2.40000000     52.41000000
C15     32.40000000      2.61000000     51.80000000
O16     32.30000000      2.40000000     50.59000000
C17     31.36000000      3.26000000     52.67000000
C18     30.76000000      4.44000000     51.92000000
C19     29.24000000      4.39000000     51.93000000
C20     28.55000000      3.93000000     53.23000000
C21     27.14000000      4.53000000     53.34000000
C22     26.44000000      4.40000000     54.69000000
C23     26.40000000      5.58000000     55.67000000
C24     25.93000000      5.04000000     56.98000000
C25     25.34000000      5.57000000     58.05000000
C26     24.96000000      4.71000000     59.21000000
C27     23.89000000      5.35000000     60.07000000
C28     24.52000000      5.87000000     61.33000000
C29     23.69000000      5.54000000     62.54000000
C30     23.40000000      4.04000000     62.62000000
C31     22.72000000      3.88000000     63.96000000
C32     22.35000000      2.46000000     64.32000000
C33     22.37000000      2.36000000     65.84000000
C34     35.51000000      0.85000000     52.32000000
OS35     34.96000000     99.70000000     52.98000000
C36     35.74000000     99.32000000     54.02000000
O37     36.88000000     99.76000000     54.18000000
C38     35.20000000     98.10000000     54.74000000
C39     35.05000000     98.37000000     56.23000000
C40     33.86000000     99.29000000     56.48000000
C41     33.51000000     99.29000000     57.96000000
C42     32.17000000     99.98000000     58.22000000
C43     31.72000000     99.63000000     59.63000000
C44     32.75000000      0.10000000     60.65000000
C45     32.33000000     99.70000000     62.06000000
C46     32.32000000      0.94000000     62.95000000
C47     31.85000000      0.67000000     64.37000000
C48     32.86000000     99.83000000     65.16000000
C49     32.55000000      0.00000000     66.64000000
C50     33.59000000     99.37000000     67.56000000
C51     33.14000000     99.55000000     69.01000000
C52     34.02000000     98.76000000     69.99000000
 C1     40.69000000      0.41000000     45.48000000
 C2     42.38000000      1.91000000     44.72000000
 C3     40.11000000      2.72000000     45.16000000
 N4     41.18000000      1.80000000     45.54000000
 C5     41.59000000      2.13000000     46.93000000
 C6     40.54000000      1.97000000     48.04000000
OS7     40.30000000      0.60000000     48.29000000
 P8     39.00000000      0.37000000     49.13000000
OM9     38.16000000      0.67000000     47.94000000
OM10     39.17000000     98.99000000     49.51000000
OS11     39.21000000      1.43000000     50.30000000
C12     39.67000000      0.97000000     51.60000000
C13     40.89000000      1.66000000     52.32000000
OS14     41.90000000      0.65000000     52.58000000
C15     42.57000000      0.06000000     51.54000000
O16     42.61000000      0.50000000     50.38000000
C17     43.28000000     98.80000000     51.98000000
C18     44.77000000     99.00000000     52.16000000
C19     45.09000000     99.08000000     53.66000000
C20     45.65000000      0.40000000     54.24000000
C21     46.41000000      0.16000000     55.57000000
C22     47.77000000      0.84000000     55.87000000
C23     49.00000000      0.11000000     56.48000000
C24     48.84000000     99.28000000     57.73000000
C25     49.58000000     98.26000000     58.22000000
C26     49.15000000     97.45000000     59.42000000
C27     50.04000000     96.70000000     60.41000000
C28     50.39000000     97.59000000     61.59000000
C29     50.73000000     96.78000000     62.84000000
C30     51.53000000     97.64000000     63.80000000
C31     52.90000000     97.87000000     63.19000000
C32     53.93000000     98.37000000     64.19000000
C33     53.54000000     97.88000000     65.58000000
C34     40.63000000      2.69000000     53.51000000
OS35     40.41000000      4.16000000     53.94000000
C36     40.19000000      5.55000000     54.34000000
O37     39.45000000      6.23000000     53.65000000
C38     40.86000000      6.35000000     55.53000000
C39     41.80000000      7.20000000     56.50000000
C40     43.12000000      6.84000000     57.25000000
C41     43.50000000      7.52000000     58.61000000
C42     44.73000000      6.98000000     59.42000000
C43     44.57000000      6.75000000     60.97000000
C44     45.14000000      5.41000000     61.56000000
C45     45.15000000      4.32000000     62.69000000
C46     45.78000000      4.39000000     64.11000000
C47     45.82000000      3.07000000     64.92000000
C48     45.96000000      3.03000000     66.47000000
C49     44.82000000      3.28000000     67.47000000
C50     44.49000000      4.77000000     67.60000000
C51     43.55000000      5.15000000     68.73000000
C52     43.28000000      6.66000000     68.65000000
 C1     47.60000000      3.41000000     45.31000000
 C2     46.14000000      1.74000000     44.46000000
 C3     48.53000000      1.48000000     44.18000000
 N4     47.45000000      1.96000000     45.05000000
 C5     47.45000000      1.16000000     46.31000000
 C6     48.79000000      1.02000000     47.03000000
OS7     49.15000000      2.36000000     47.32000000
 P8     50.11000000      2.78000000     48.50000000
OM9     51.07000000      2.29000000     47.47000000
OM10     49.41000000      4.07000000     48.31000000
OS11     49.26000000      1.74000000     49.39000000
C12     48.15000000      2.28000000     50.10000000
C13     47.24000000      1.33000000     50.91000000
OS14     46.00000000      2.08000000     51.30000000
C15     45.04000000      2.63000000     50.43000000
O16     45.23000000      2.61000000     49.20000000
C17     43.80000000      3.38000000     51.05000000
C18     42.52000000      3.81000000     50.22000000
C19     41.09000000      4.49000000     50.49000000
C20     39.52000000      4.40000000     50.85000000
C21     38.27000000      4.34000000     51.85000000
C22     37.60000000      3.43000000     53.00000000
C23     37.59000000      3.52000000     54.58000000
C24     37.22000000      2.71000000     55.84000000
C25     36.89000000      3.16000000     57.09000000
C26     36.64000000      2.39000000     58.39000000
C27     35.58000000      2.74000000     59.47000000
C28     35.74000000      3.91000000     60.46000000
C29     36.38000000      3.52000000     61.79000000
C30     35.56000000      2.62000000     62.71000000
C31     34.89000000      3.45000000     63.80000000
C32     34.92000000      2.67000000     65.10000000
C33     36.31000000      2.62000000     65.71000000
C34     48.24000000      0.59000000     51.89000000
OS35     48.02000000     99.21000000     52.35000000
C36     48.77000000     98.51000000     53.29000000
O37     49.99000000     98.66000000     53.43000000
C38     47.97000000     97.29000000     53.83000000
C39     47.91000000     96.88000000     55.33000000
C40     46.50000000     96.85000000     55.97000000
C41     46.32000000     96.87000000     57.51000000
C42     45.46000000     98.03000000     58.07000000
C43     45.42000000     98.13000000     59.61000000
C44     46.25000000     99.20000000     60.34000000
C45     46.07000000     98.96000000     61.85000000
C46     46.98000000     99.73000000     62.81000000
C47     46.53000000     99.40000000     64.23000000
C48     47.60000000     99.59000000     65.31000000
C49     46.94000000     99.46000000     66.69000000
C50     46.22000000     98.12000000     66.81000000
C51     45.22000000     98.13000000     67.97000000
C52     45.93000000     98.19000000     69.32000000
 C1     54.05000000      3.48000000     45.42000000
 C2     52.54000000      1.88000000     44.62000000
 C3     54.94000000      1.48000000     44.34000000
 N4     53.87000000      2.03000000     45.18000000
 C5     53.82000000      1.29000000     46.46000000
 C6     55.13000000      1.12000000     47.23000000
OS7     55.59000000      2.43000000     47.46000000
 P8     56.66000000      2.73000000     48.57000000
OM9     57.55000000      2.06000000     47.58000000
OM10     56.36000000      4.16000000     48.39000000
OS11     55.79000000      1.86000000     49.62000000
C12     54.61000000      2.43000000     50.23000000
C13     53.88000000      1.61000000     51.33000000
OS14     53.10000000      2.47000000     52.21000000
C15     51.82000000      2.54000000     51.81000000
O16     51.52000000      1.97000000     50.77000000
C17     50.87000000      3.41000000     52.64000000
C18     50.26000000      4.51000000     51.76000000
C19     48.80000000      4.88000000     52.08000000
C20     48.14000000      4.06000000     53.19000000
C21     46.98000000      4.75000000     53.92000000
C22     46.59000000      3.86000000     55.11000000
C23     45.98000000      4.41000000     56.41000000
C24     45.71000000      3.28000000     57.39000000
C25     44.87000000      2.97000000     58.40000000
C26     43.77000000      3.83000000     58.94000000
C27     42.93000000      3.42000000     60.14000000
C28     42.11000000      4.60000000     60.61000000
C29     41.49000000      4.36000000     61.96000000
C30     40.51000000      3.20000000     61.83000000
C31     39.62000000      3.07000000     63.06000000
C32     39.09000000      1.64000000     63.14000000
C33     39.07000000      1.17000000     64.59000000
C34     54.94000000      0.83000000     52.12000000
OS35     54.50000000     99.59000000     52.67000000
C36     54.92000000     99.44000000     53.95000000
O37     55.74000000      0.16000000     54.51000000
C38     54.45000000     98.15000000     54.52000000
C39     54.41000000     98.36000000     56.01000000
C40     53.35000000     99.39000000     56.41000000
C41     53.45000000     99.66000000     57.91000000
C42     52.42000000      0.70000000     58.31000000
C43     51.93000000      0.51000000     59.75000000
C44     52.84000000      1.12000000     60.81000000
C45     52.06000000      1.24000000     62.12000000
C46     52.94000000      1.76000000     63.25000000
C47     52.30000000      1.43000000     64.61000000
C48     53.20000000      1.70000000     65.81000000
C49     52.52000000      1.17000000     67.08000000
C50     53.53000000      0.52000000     68.03000000
C51     52.81000000     99.72000000     69.12000000
C52     53.81000000     98.91000000     69.95000000
 C1     60.98000000      3.49000000     45.50000000
 C2     59.25000000      2.00000000     44.89000000
 C3     61.59000000      1.30000000     44.65000000
 N4     60.61000000      2.06000000     45.42000000
 C5     60.48000000      1.48000000     46.78000000
 C6     61.77000000      1.30000000     47.61000000
OS7     62.31000000      2.59000000     47.79000000
 P8     63.47000000      2.96000000     48.80000000
OM9     64.27000000      2.30000000     47.73000000
OM10     62.83000000      4.26000000     48.59000000
OS11     62.90000000      1.90000000     49.83000000
C12     62.07000000      2.42000000     50.86000000
C13     61.06000000      1.39000000     51.42000000
OS14     60.01000000      2.08000000     52.15000000
C15     58.92000000      2.50000000     51.44000000
O16     58.83000000      2.26000000     50.24000000
C17     57.74000000      2.89000000     52.34000000
C18     57.09000000      4.20000000     51.97000000
C19     55.69000000      4.34000000     52.58000000
C20     55.41000000      4.45000000     54.07000000
C21     53.96000000      4.95000000     54.13000000
C22     53.39000000      4.72000000     55.52000000
C23     53.70000000      5.90000000     56.42000000
C24     53.19000000      5.60000000     57.79000000
C25     52.25000000      6.25000000     58.47000000
C26     51.83000000      5.80000000     59.82000000
C27     51.36000000      6.93000000     60.72000000
C28     52.20000000      7.00000000     61.99000000
C29     51.44000000      6.72000000     63.29000000
C30     51.21000000      5.22000000     63.42000000
C31     50.45000000      4.87000000     64.69000000
C32     49.61000000      3.62000000     64.43000000
C33     49.33000000      2.88000000     65.73000000
C34     61.84000000      0.17000000     52.01000000
OS35     61.28000000     99.12000000     52.87000000
C36     61.94000000     98.24000000     53.72000000
O37     63.15000000     98.11000000     53.67000000
C38     61.07000000     97.29000000     54.58000000
C39     60.75000000     97.63000000     56.05000000
C40     59.24000000     97.84000000     56.30000000
C41     58.72000000     98.46000000     57.62000000
C42     57.31000000     99.02000000     57.81000000
C43     56.89000000     98.95000000     59.29000000
C44     57.56000000     99.95000000     60.23000000
C45     57.35000000     99.43000000     61.65000000
C46     57.88000000      0.38000000     62.72000000
C47     57.45000000     99.86000000     64.09000000
C48     58.61000000     99.48000000     65.00000000
C49     58.02000000     99.33000000     66.40000000
C50     59.04000000     99.45000000     67.52000000
C51     58.23000000     99.85000000     68.75000000
C52     59.09000000     99.95000000     70.01000000
 C1     68.82000000      2.45000000     45.18000000
 C2     66.72000000      3.49000000     44.64000000
 C3     66.97000000      1.09000000     44.33000000
 N4     67.36000000      2.27000000     45.11000000
 C5     66.84000000      2.13000000     46.48000000
 C6     67.08000000      0.78000000     47.16000000
OS7     68.48000000      0.69000000     47.40000000
 P8     68.98000000     99.48000000     48.28000000
OM9     68.56000000     98.56000000     47.19000000
OM10     70.36000000     99.97000000     48.29000000
OS11     67.92000000     99.79000000     49.43000000
C12     68.16000000      0.95000000     50.25000000
C13     66.94000000      1.86000000     50.46000000
OS14     67.47000000      3.24000000     50.55000000
C15     67.09000000      4.47000000     50.06000000
O16     66.17000000      4.56000000     49.24000000
C17     68.19000000      5.58000000     50.17000000
C18     69.06000000      6.40000000     51.20000000
C19     69.29000000      7.47000000     52.35000000
C20     68.84000000      8.87000000     52.94000000
C21     67.64000000      9.32000000     53.91000000
C22     66.43000000     10.00000000     54.69000000
C23     65.93000000     11.29000000     55.45000000
C24     65.95000000     12.23000000     56.67000000
C25     66.88000000     12.92000000     57.42000000
C26     67.23000000     13.75000000     58.67000000
C27     66.93000000     13.42000000     60.16000000
C28     68.04000000     13.41000000     61.23000000
C29     67.66000000     12.77000000     62.59000000
C30     66.99000000     13.57000000     63.73000000
C31     65.51000000     13.81000000     63.45000000
C32     64.66000000     14.70000000     64.36000000
C33     64.35000000     14.43000000     65.82000000
C34     66.05000000      0.99000000     51.40000000
OS35     64.87000000      1.30000000     52.19000000
C36     64.95000000      0.68000000     53.42000000
O37     66.02000000      0.22000000     53.76000000
C38     63.84000000      0.97000000     54.43000000
C39     64.02000000      0.22000000     55.75000000
C40     64.62000000      1.10000000     56.81000000
C41     64.60000000      0.37000000     58.14000000
C42     64.27000000      1.45000000     59.12000000
C43     64.32000000      1.17000000     60.61000000