#B3LYP/6-31+G(d) OPT FREQ

23400, Energy = -172236.30061947 au

0 1
 C1      2.43000000      0.46000000     44.89000000
 C2      1.12000000      1.87000000     43.51000000
 C3      0.87000000     99.48000000     43.34000000
 N4      1.11000000      0.61000000     44.25000000
 C5      0.04000000      0.70000000     45.28000000
 C6     99.63000000     99.45000000     46.10000000
OS7      0.79000000     98.81000000     46.58000000
 P8      1.19000000     99.00000000     48.12000000
OM9      0.19000000     97.96000000     48.38000000
OM10      2.52000000     98.86000000     47.50000000
OS11      0.71000000      0.51000000     48.29000000
C12      0.50000000      0.91000000     49.66000000
C13      1.68000000      1.31000000     50.58000000
OS14      2.76000000      0.33000000     50.56000000
C15      3.88000000      0.58000000     49.81000000
O16      3.83000000      1.31000000     48.81000000
C17      4.94000000     99.47000000     49.92000000
C18      5.54000000     99.16000000     51.30000000
C19      7.06000000     98.95000000     51.25000000
C20      7.83000000     98.46000000     52.50000000
C21      7.97000000     99.15000000     53.88000000
C22      8.93000000      0.28000000     54.29000000
C23      9.43000000      0.41000000     55.74000000
C24     10.90000000      0.76000000     55.80000000
C25     11.81000000      0.93000000     56.78000000
C26     11.65000000      0.84000000     58.26000000
C27     12.83000000      0.26000000     59.05000000
C28     12.68000000      0.69000000     60.52000000
C29     13.89000000      0.54000000     61.44000000
C30     13.57000000      1.19000000     62.79000000
C31     14.76000000      1.76000000     63.56000000
C32     14.43000000      1.99000000     65.03000000
C33     13.10000000      2.72000000     65.18000000
C34      1.07000000      1.60000000     51.98000000
OS35      0.53000000      2.90000000     52.37000000
C36     99.99000000      2.95000000     53.65000000
O37     99.50000000      1.94000000     54.14000000
C38     99.75000000      4.35000000     54.24000000
C39     99.38000000      4.33000000     55.73000000
C40     99.70000000      5.66000000     56.46000000
C41     99.39000000      5.58000000     57.97000000
C42      0.05000000      6.70000000     58.77000000
C43     99.68000000      6.72000000     60.26000000
C44      0.18000000      5.50000000     61.05000000
C45      0.13000000      5.66000000     62.57000000
C46      0.92000000      4.55000000     63.25000000
C47      1.11000000      4.64000000     64.77000000
C48     99.98000000      4.00000000     65.57000000
C49      0.32000000      3.98000000     67.06000000
C50      0.33000000      5.40000000     67.64000000
C51      0.53000000      5.37000000     69.16000000
C52      0.43000000      6.78000000     69.74000000
 C1      6.95000000      1.72000000     46.01000000
 C2      6.61000000     99.43000000     45.97000000
 C3      8.41000000      0.28000000     44.65000000
 N4      7.66000000      0.44000000     45.91000000
 C5      8.54000000      0.31000000     47.11000000
 C6      9.97000000      0.90000000     47.02000000
OS7     10.09000000      2.21000000     46.44000000
 P8      9.99000000      3.47000000     47.41000000
OM9     11.11000000      4.26000000     46.86000000
OM10      8.63000000      3.84000000     47.02000000
OS11     10.08000000      2.84000000     48.85000000
C12      8.99000000      3.03000000     49.78000000
C13      8.84000000      1.90000000     50.84000000
OS14      8.23000000      2.39000000     52.08000000
C15      6.86000000      2.32000000     52.20000000
O16      6.20000000      2.19000000     51.19000000
C17      6.29000000      2.56000000     53.61000000
C18      5.57000000      1.42000000     54.39000000
C19      4.15000000      0.91000000     54.08000000
C20      3.41000000      0.49000000     55.37000000
C21      1.87000000      0.40000000     55.26000000
C22      1.12000000      0.29000000     56.60000000
C23     99.74000000     99.58000000     56.66000000
C24     99.65000000     98.83000000     57.96000000
C25     99.25000000     97.66000000     58.51000000
C26     98.60000000     96.37000000     58.09000000
C27     98.00000000     95.66000000     59.32000000
C28     96.87000000     94.64000000     59.15000000
C29     95.79000000     94.75000000     60.25000000
C30     96.06000000     94.13000000     61.63000000
C31     96.91000000     94.92000000     62.63000000
C32     96.94000000     94.32000000     64.04000000
C33     97.83000000     93.08000000     64.14000000
C34     10.22000000      1.21000000     51.02000000
OS35     10.36000000     99.78000000     51.25000000
C36     11.25000000     99.46000000     52.24000000
O37     11.77000000      0.36000000     52.89000000
C38     11.47000000     97.99000000     52.59000000
C39     11.98000000     97.74000000     54.03000000
C40     10.90000000     97.25000000     55.02000000
C41     11.25000000     97.30000000     56.52000000
C42      9.97000000     97.19000000     57.38000000
C43     10.08000000     97.45000000     58.90000000
C44      8.84000000     96.98000000     59.69000000
C45      9.00000000     96.96000000     61.22000000
C46      7.70000000     96.75000000     62.01000000
C47      7.51000000     97.60000000     63.28000000
C48      7.84000000     96.94000000     64.63000000
C49      7.76000000     97.92000000     65.81000000
C50      7.88000000     97.19000000     67.15000000
C51      7.81000000     98.11000000     68.38000000
C52      9.14000000     98.77000000     68.73000000
 C1     13.83000000      0.38000000     45.71000000
 C2     15.46000000      1.81000000     44.74000000
 C3     14.16000000      2.58000000     46.59000000
 N4     14.83000000      1.42000000     45.99000000
 C5     15.88000000      0.88000000     46.89000000
 C6     15.63000000      0.51000000     48.36000000
OS7     14.61000000     99.56000000     48.54000000
 P8     13.39000000      0.03000000     49.42000000
OM9     12.63000000      0.76000000     48.40000000
OM10     12.95000000     98.72000000     49.88000000
OS11     13.97000000      1.07000000     50.45000000
C12     14.41000000      0.51000000     51.69000000
C13     15.14000000      1.41000000     52.72000000
OS14     16.17000000      0.58000000     53.31000000
C15     17.21000000      0.19000000     52.51000000
O16     17.34000000      0.52000000     51.32000000
C17     18.15000000     99.20000000     53.17000000
C18     18.59000000     98.23000000     52.07000000
C19     19.86000000     97.47000000     52.43000000
C20     19.97000000     97.15000000     53.92000000
C21     21.16000000     96.22000000     54.22000000
C22     21.06000000     95.67000000     55.65000000
C23     22.10000000     94.64000000     56.11000000
C24     23.33000000     95.24000000     56.73000000
C25     23.76000000     95.18000000     58.00000000
C26     25.01000000     95.85000000     58.51000000
C27     25.48000000     95.36000000     59.89000000
C28     24.48000000     95.78000000     60.97000000
C29     24.77000000     95.11000000     62.32000000
C30     25.87000000     95.78000000     63.13000000
C31     26.32000000     94.81000000     64.23000000
C32     26.73000000     95.49000000     65.53000000
C33     25.49000000     95.88000000     66.34000000
C34     14.08000000      2.18000000     53.58000000
OS35     14.14000000      3.02000000     54.79000000
C36     14.08000000      4.41000000     54.87000000
O37     14.12000000      5.14000000     53.90000000
C38     13.96000000      4.96000000     56.30000000
C39     14.91000000      6.09000000     56.78000000
C40     16.37000000      5.76000000     57.17000000
C41     16.89000000      5.83000000     58.61000000
C42     18.12000000      4.96000000     58.97000000
C43     18.21000000      4.80000000     60.50000000
C44     19.25000000      3.87000000     61.12000000
C45     18.73000000      3.56000000     62.53000000
C46     19.73000000      2.98000000     63.53000000
C47     19.06000000      2.82000000     64.90000000
C48     20.07000000      2.42000000     65.98000000
C49     19.46000000      2.10000000     67.34000000
C50     18.79000000      3.30000000     68.02000000
C51     18.21000000      2.83000000     69.36000000
C52     17.66000000      4.01000000     70.16000000
 C1     20.59000000      2.17000000     46.36000000
 C2     19.08000000      0.42000000     45.88000000
 C3     21.04000000      0.72000000     44.52000000
 N4     20.49000000      0.78000000     45.87000000
 C5     21.12000000     99.82000000     46.81000000
 C6     22.66000000     99.70000000     46.84000000
OS7     23.25000000      0.98000000     46.65000000
 P8     23.86000000      1.79000000     47.90000000
OM9     24.91000000      0.75000000     47.82000000
OM10     23.68000000      2.85000000     46.89000000
OS11     22.57000000      1.48000000     48.76000000
C12     22.05000000      2.41000000     49.71000000
C13     20.73000000      1.81000000     50.24000000
OS14     19.63000000      2.78000000     50.43000000
C15     18.53000000      2.86000000     49.59000000
O16     18.49000000      2.37000000     48.45000000
C17     17.50000000      3.90000000     50.05000000
C18     16.03000000      3.64000000     49.63000000
C19     14.95000000      4.50000000     50.32000000
C20     13.46000000      4.08000000     50.31000000
C21     12.65000000      4.96000000     51.27000000
C22     11.27000000      4.53000000     51.83000000
C23     11.21000000      3.86000000     53.22000000
C24     10.02000000      3.96000000     54.15000000
C25     10.04000000      4.02000000     55.50000000
C26      8.89000000      4.16000000     56.48000000
C27      8.98000000      3.42000000     57.83000000
C28      9.92000000      3.97000000     58.92000000
C29      9.17000000      4.72000000     60.02000000
C30      8.71000000      3.96000000     61.27000000
C31      9.72000000      3.89000000     62.43000000
C32      8.98000000      3.40000000     63.69000000
C33      9.79000000      3.39000000     64.98000000
C34     21.12000000      0.62000000     51.16000000
OS35     22.15000000      0.62000000     52.20000000
C36     22.69000000     99.43000000     52.67000000
O37     22.76000000     98.44000000     51.94000000
C38     23.57000000     99.60000000     53.92000000
C39     23.57000000     98.73000000     55.20000000
C40     22.46000000     99.02000000     56.21000000
C41     22.63000000     98.46000000     57.64000000
C42     21.29000000     97.95000000     58.21000000
C43     21.25000000     97.21000000     59.55000000
C44     21.72000000     98.10000000     60.70000000
C45     21.41000000     97.53000000     62.09000000
C46     22.22000000     98.36000000     63.08000000
C47     21.63000000     98.50000000     64.48000000
C48     22.03000000     97.40000000     65.46000000
C49     21.60000000     97.87000000     66.85000000
C50     21.76000000     96.81000000     67.94000000
C51     21.03000000     97.26000000     69.21000000
C52     21.63000000     98.56000000     69.76000000
 C1     26.76000000      2.72000000     46.31000000
 C2     25.71000000      1.11000000     44.94000000
 C3     27.65000000      2.19000000     44.13000000
 N4     27.00000000      1.66000000     45.32000000
 C5     27.74000000      0.57000000     46.02000000
 C6     29.29000000      0.62000000     46.01000000
OS7     29.80000000      1.93000000     46.20000000
 P8     30.22000000      2.46000000     47.65000000
OM9     31.61000000      2.37000000     47.18000000
OM10     29.41000000      3.67000000     47.48000000
OS11     29.54000000      1.31000000     48.49000000
C12     28.80000000      1.75000000     49.63000000
C13     27.95000000      0.66000000     50.31000000
OS14     27.09000000      1.17000000     51.37000000
C15     26.02000000      1.97000000     51.11000000
O16     25.77000000      2.48000000     50.01000000
C17     25.22000000      2.17000000     52.38000000
C18     24.65000000      3.57000000     52.60000000
C19     23.19000000      3.49000000     53.05000000
C20     22.86000000      2.90000000     54.42000000
C21     21.34000000      2.67000000     54.48000000
C22     20.76000000      1.88000000     55.67000000
C23     20.94000000      2.49000000     57.07000000
C24     20.11000000      1.77000000     58.10000000
C25     19.40000000      0.66000000     57.85000000
C26     18.45000000     99.80000000     58.66000000
C27     17.90000000      0.35000000     59.97000000
C28     18.62000000     99.86000000     61.23000000
C29     17.63000000     99.91000000     62.39000000
C30     18.18000000     99.49000000     63.75000000
C31     17.02000000     99.46000000     64.74000000
C32     17.38000000     99.53000000     66.22000000
C33     18.16000000     98.31000000     66.70000000
C34     28.92000000     99.55000000     50.77000000
OS35     28.35000000     98.54000000     51.63000000
C36     28.68000000     98.67000000     52.96000000
O37     29.78000000     99.05000000     53.34000000
C38     27.73000000     97.84000000     53.81000000
C39     28.28000000     97.60000000     55.22000000
C40     28.01000000     98.75000000     56.19000000
C41     28.44000000     98.33000000     57.59000000
C42     27.94000000     99.31000000     58.65000000
C43     28.21000000     98.76000000     60.05000000
C44     27.50000000     99.61000000     61.09000000
C45     27.61000000     99.01000000     62.49000000
C46     26.64000000     99.77000000     63.38000000
C47     26.50000000     99.24000000     64.81000000
C48     27.75000000     99.39000000     65.67000000
C49     27.34000000     99.16000000     67.13000000
C50     28.49000000     98.65000000     68.00000000
C51     27.96000000     98.30000000     69.39000000
C52     29.01000000     97.58000000     70.23000000
 C1     34.04000000      1.99000000     45.55000000
 C2     33.06000000     99.83000000     45.84000000
 C3     35.45000000      0.02000000     45.48000000
 N4     34.26000000      0.63000000     46.07000000
 C5     34.41000000      0.66000000     47.55000000
 C6     35.56000000      1.50000000     48.12000000
OS7     35.31000000      2.90000000     48.04000000
 P8     36.43000000      3.73000000     48.77000000
OM9     37.56000000      3.38000000     47.91000000
OM10     35.91000000      5.08000000     48.72000000
OS11     36.40000000      3.08000000     50.19000000
C12     35.25000000      3.46000000     50.95000000
C13     34.42000000      2.24000000     51.39000000
OS14     33.14000000      2.59000000     51.94000000
C15     32.19000000      1.68000000     51.65000000
O16     31.91000000      1.39000000     50.48000000
C17     31.20000000      1.70000000     52.79000000
C18     30.63000000      3.09000000     52.92000000
C19     29.12000000      3.05000000     53.08000000
C20     28.65000000      2.56000000     54.44000000
C21     27.51000000      3.49000000     54.83000000
C22     26.78000000      3.02000000     56.08000000
C23     25.80000000      4.09000000     56.55000000
C24     25.01000000      3.44000000     57.64000000
C25     25.02000000      2.12000000     57.80000000
C26     24.34000000      1.35000000     58.88000000
C27     23.81000000      2.29000000     59.95000000
C28     23.52000000      1.49000000     61.22000000
C29     23.40000000      2.43000000     62.42000000
C30     23.48000000      1.61000000     63.70000000
C31     23.48000000      2.44000000     64.97000000
C32     23.72000000      1.53000000     66.18000000
C33     23.68000000      2.32000000     67.49000000
C34     35.28000000      1.45000000     52.38000000
OS35     34.91000000      0.11000000     52.74000000
C36     35.58000000     99.68000000     53.84000000
O37     36.68000000      0.13000000     54.16000000
C38     35.06000000     98.34000000     54.30000000
C39     35.08000000     98.21000000     55.82000000
C40     33.79000000     98.78000000     56.41000000
C41     33.76000000     98.60000000     57.92000000
C42     32.32000000     98.50000000     58.40000000
C43     32.23000000     98.21000000     59.90000000
C44     32.48000000     99.46000000     60.74000000
C45     32.34000000     99.14000000     62.22000000
C46     32.38000000      0.41000000     63.07000000
C47     32.32000000      0.07000000     64.56000000
C48     33.62000000     99.38000000     64.99000000
C49     33.63000000     99.08000000     66.49000000
C50     32.73000000     97.91000000     66.86000000
C51     32.69000000     97.71000000     68.37000000
C52     34.09000000     97.43000000     68.94000000
 C1     41.07000000      1.44000000     45.37000000
 C2     41.86000000      3.75000000     45.76000000
 C3     39.56000000      3.19000000     45.82000000
 N4     40.91000000      2.70000000     46.11000000
 C5     41.07000000      2.51000000     47.57000000
 C6     40.06000000      1.61000000     48.29000000
OS7     40.17000000      0.25000000     47.88000000
 P8     38.78000000     99.52000000     47.75000000
OM9     38.16000000      0.40000000     46.74000000
OM10     39.02000000     98.16000000     47.27000000
OS11     38.10000000     99.75000000     49.18000000
C12     38.68000000     99.10000000     50.33000000
C13     39.56000000    100.00000000     51.25000000
OS14     40.34000000     99.21000000     52.20000000
C15     41.56000000     98.68000000     51.86000000
O16     42.01000000     98.68000000     50.71000000
C17     42.31000000     98.23000000     53.11000000
C18     43.73000000     98.82000000     53.25000000
C19     44.21000000     98.93000000     54.72000000
C20     45.42000000     99.87000000     54.84000000
C21     46.15000000      0.03000000     56.19000000
C22     47.53000000      0.72000000     56.07000000
C23     48.85000000      0.17000000     56.66000000
C24     49.25000000      0.49000000     58.07000000
C25     50.44000000      0.97000000     58.48000000
C26     50.77000000      1.39000000     59.89000000
C27     52.24000000      1.28000000     60.31000000
C28     52.57000000     99.81000000     60.51000000
C29     53.66000000     99.57000000     61.54000000
C30     53.36000000      0.30000000     62.85000000
C31     54.26000000     99.76000000     63.97000000
C32     54.27000000      0.72000000     65.16000000
C33     52.86000000      0.95000000     65.69000000
C34     38.69000000      1.16000000     51.84000000
OS35     39.28000000      2.42000000     52.28000000
C36     38.62000000      3.22000000     53.20000000
O37     37.40000000      3.34000000     53.22000000
C38     39.52000000      4.27000000     53.87000000
C39     39.38000000      4.28000000     55.41000000
C40     40.60000000      4.90000000     56.11000000
C41     40.66000000      4.82000000     57.65000000
C42     41.43000000      3.59000000     58.16000000
C43     41.65000000      3.46000000     59.68000000
C44     42.24000000      2.08000000     60.00000000
C45     42.59000000      1.86000000     61.48000000
C46     41.42000000      1.45000000     62.39000000
C47     41.94000000      1.23000000     63.81000000
C48     40.88000000      0.87000000     64.85000000
C49     41.45000000      0.92000000     66.27000000
C50     41.54000000      2.36000000     66.77000000
C51     42.54000000      2.53000000     67.92000000
C52     42.80000000      4.02000000     68.19000000
 C1     45.97000000      2.26000000     46.29000000
 C2     44.37000000      0.62000000     45.70000000
 C3     45.88000000      1.51000000     44.02000000
 N4     45.72000000      1.10000000     45.41000000
 C5     46.58000000     99.94000000     45.76000000
 C6     48.10000000    100.00000000     45.47000000
OS7     48.68000000      1.20000000     45.96000000
 P8     49.39000000      1.25000000     47.41000000
OM9     50.45000000      0.62000000     46.60000000
OM10     48.90000000      2.63000000     47.29000000
OS11     48.39000000      0.20000000     48.10000000
C12     47.61000000      0.74000000     49.18000000
C13     46.58000000     99.89000000     49.95000000
OS14     45.58000000      0.80000000     50.51000000
C15     44.51000000      1.30000000     49.82000000
O16     44.45000000      1.26000000     48.58000000
C17     43.83000000      2.40000000     50.63000000
C18     42.61000000      1.98000000     51.45000000
C19     42.70000000      2.34000000     52.94000000
C20     41.70000000      1.57000000     53.83000000
C21     41.80000000      1.50000000     55.35000000
C22     40.96000000      0.35000000     55.92000000
C23     39.45000000      0.56000000     56.08000000
C24     39.08000000      1.02000000     57.47000000
C25     37.99000000      1.66000000     57.91000000
C26     37.77000000      2.08000000     59.33000000
C27     37.58000000      3.60000000     59.48000000
C28     38.31000000      4.23000000     60.67000000
C29     37.53000000      4.42000000     61.97000000
C30     37.37000000      3.16000000     62.83000000
C31     36.76000000      3.57000000     64.17000000
C32     36.23000000      2.37000000     64.96000000
C33     37.35000000      1.60000000     65.65000000
C34     47.40000000     99.04000000     50.96000000
OS35     46.93000000     98.04000000     51.91000000
C36     47.62000000     98.11000000     53.11000000
O37     48.29000000     99.11000000     53.33000000
C38     47.40000000     97.00000000     54.15000000
C39     48.12000000     97.13000000     55.52000000
C40     47.48000000     96.38000000     56.71000000
C41     47.68000000     96.95000000     58.14000000
C42     46.57000000     97.91000000     58.59000000
C43     46.29000000     98.14000000     60.08000000
C44     46.66000000     99.46000000     60.76000000
C45     46.06000000     99.44000000     62.18000000
C46     46.44000000      0.69000000     62.97000000
C47     45.79000000      0.79000000     64.35000000
C48     46.43000000     99.84000000     65.37000000
C49     45.99000000      0.18000000     66.79000000
C50     46.81000000     99.39000000     67.81000000
C51     46.46000000     99.78000000     69.25000000
C52     47.31000000     99.00000000     70.25000000
 C1     52.34000000      2.18000000     44.86000000
 C2     52.09000000      0.27000000     43.51000000
 C3     54.30000000      1.23000000     43.80000000
 N4     53.01000000      0.94000000     44.43000000
 C5     53.17000000      0.03000000     45.60000000
 C6     54.25000000      0.37000000     46.63000000
OS7     54.23000000      1.76000000     46.96000000
 P8     55.49000000      2.22000000     47.75000000
OM9     56.48000000      1.75000000     46.74000000
OM10     55.19000000      3.66000000     47.80000000
OS11     55.22000000      1.28000000     48.98000000
C12     54.26000000      1.77000000     49.92000000
C13     53.49000000      0.71000000     50.73000000
OS14     52.49000000      1.35000000     51.57000000
C15     51.28000000      1.69000000     51.06000000
O16     50.98000000      1.64000000     49.85000000
C17     50.37000000      2.13000000     52.19000000
C18     48.93000000      2.44000000     51.77000000
C19     47.98000000      2.16000000     52.94000000
C20     46.56000000      2.72000000     52.76000000
C21     46.00000000      3.64000000     53.86000000
C22     45.20000000      3.14000000     55.07000000
C23     44.27000000      4.07000000     55.87000000
C24     44.96000000      4.88000000     56.92000000
C25     44.60000000      5.65000000     57.95000000
C26     45.68000000      6.30000000     58.77000000
C27     45.37000000      7.23000000     59.92000000
C28     44.50000000      6.52000000     60.95000000
C29     44.12000000      7.52000000     62.03000000
C30     43.56000000      6.77000000     63.22000000
C31     42.64000000      5.65000000     62.74000000
C32     42.16000000      4.92000000     63.98000000
C33     43.41000000      4.45000000     64.72000000
C34     54.51000000     99.80000000     51.48000000
OS35     54.10000000     98.80000000     52.43000000
C36     54.92000000     97.74000000     52.73000000
O37     55.78000000     97.41000000     51.92000000
C38     54.26000000     96.76000000     53.72000000
C39     54.46000000     96.83000000     55.25000000
C40     53.30000000     96.17000000     56.01000000
C41     53.31000000     96.39000000     57.53000000
C42     51.91000000     96.27000000     58.16000000
C43     51.94000000     96.28000000     59.70000000
C44     50.59000000     96.71000000     60.30000000
C45     50.58000000     96.75000000     61.84000000
C46     49.86000000     98.00000000     62.35000000
C47     49.57000000     97.99000000     63.85000000
C48     50.82000000     97.85000000     64.72000000
C49     50.49000000     97.98000000     66.21000000
C50     51.75000000     97.80000000     67.06000000
C51     51.49000000     98.15000000     68.53000000
C52     52.79000000     98.06000000     69.34000000
 C1     59.38000000      2.29000000     46.04000000
 C2     58.64000000      0.16000000     45.22000000
 C3     60.99000000      0.57000000     45.44000000
 N4     59.66000000      0.85000000     46.00000000
 C5     59.53000000      0.30000000     47.37000000
 C6     60.73000000      0.49000000     48.32000000
OS7     61.05000000      1.88000000     48.37000000
 P8     62.52000000      2.22000000     48.75000000
OM9     63.15000000      1.32000000     47.74000000
OM10     62.40000000      3.63000000     48.37000000
OS11     62.32000000      1.66000000     50.20000000
C12     61.64000000      2.43000000     51.21000000
C13     61.17000000      1.56000000     52.41000000
OS14     60.57000000      2.10000000     53.64000000
C15     59.50000000      2.95000000     53.58000000
O16     59.47000000      3.80000000     52.71000000
C17     58.59000000      3.03000000     54.81000000
C18     57.11000000      3.11000000     54.41000000
C19     56.61000000      4.42000000     53.77000000
C20     55.30000000      4.22000000     53.00000000
C21     54.10000000      4.94000000     53.62000000
C22     53.69000000      4.28000000     54.93000000
C23     52.81000000      5.18000000     55.78000000
C24     52.49000000      4.65000000     57.15000000
C25     51.98000000      5.43000000     58.12000000
C26     51.58000000      5.16000000     59.54000000
C27     50.59000000      6.19000000     60.10000000
C28     51.04000000      6.76000000     61.44000000
C29     50.45000000      6.14000000     62.71000000
C30     50.65000000      4.63000000     62.83000000
C31     50.19000000      4.12000000     64.20000000
C32     50.00000000      2.61000000     64.19000000
C33     49.46000000      2.14000000     65.54000000
C34     62.35000000      0.62000000     52.67000000
OS35     61.89000000     99.31000000     52.97000000
C36     62.24000000     98.97000000     54.22000000
O37     63.35000000     99.23000000     54.69000000
C38     61.32000000     97.87000000     54.68000000
C39     61.41000000     97.68000000     56.19000000
C40     61.20000000     98.97000000     56.97000000
C41     61.12000000     98.57000000     58.44000000
C42     61.11000000     99.77000000     59.38000000
C43     60.67000000     99.25000000     60.74000000
C44     61.58000000     99.75000000     61.85000000
C45     60.99000000     99.39000000     63.22000000
C46     62.00000000     99.67000000     64.32000000
C47     61.30000000     99.94000000     65.65000000
C48     60.41000000     98.76000000     66.02000000
C49     59.69000000     99.02000000     67.34000000
C50     58.69000000     97.89000000     67.62000000
C51     58.03000000     98.12000000     68.98000000
C52     59.07000000     97.99000000     70.09000000
 C1     67.02000000      3.74000000     47.65000000
 C2     64.92000000      3.63000000     46.67000000
 C3     66.85000000      3.36000000     45.29000000
 N4     66.26000000      3.05000000     46.60000000
 C5     66.16000000      1.61000000     46.92000000
 C6     67.28000000      0.63000000     46.47000000
OS7     68.59000000      1.20000000     46.52000000
 P8     69.54000000      0.92000000     47.76000000
OM9     70.33000000     99.95000000     46.99000000
OM10     69.89000000      2.34000000     47.87000000
OS11     68.54000000      0.34000000     48.82000000
C12     68.26000000      1.21000000     49.93000000
C13     67.23000000      0.58000000     50.89000000
OS14     66.47000000      1.53000000     51.68000000
C15     65.60000000      2.41000000     51.12000000
O16     65.35000000      2.47000000     49.91000000
C17     64.85000000      3.12000000     52.24000000
C18     64.75000000      4.63000000     52.14000000
C19     63.35000000      5.12000000     52.50000000
C20     62.88000000      4.75000000     53.92000000
C21     61.57000000      5.46000000     54.27000000
C22     61.12000000      5.36000000     55.73000000
C23     59.95000000      6.23000000     56.18000000
C24     59.53000000      5.74000000     57.54000000
C25     59.30000000      6.36000000     58.71000000
C26     58.95000000      5.60000000     59.96000000
C27     58.34000000      6.42000000     61.11000000
C28     59.37000000      7.24000000     61.87000000
C29     58.77000000      7.73000000     63.18000000
C30     58.31000000      6.55000000     64.04000000
C31     57.87000000      7.03000000     65.42000000
C32     57.38000000      5.86000000     66.26000000
C33     56.72000000      6.36000000     67.55000000
C34     68.11000000     99.60000000     51.68000000
OS35     67.62000000     98.79000000     52.76000000
C36     67.99000000     99.25000000     53.99000000
O37     68.67000000      0.25000000     54.15000000
C38     67.85000000     98.19000000     55.06000000
C39     68.10000000     98.71000000     56.47000000
C40     66.87000000     99.45000000     56.98000000
C41     66.79000000     99.37000000     58.50000000
C42     65.45000000     99.92000000     58.95000000
C43     65.12000000     99.48000000     60.36000000