#B3LYP/6-31+G(d) OPT FREQ

5100, Energy =      0.00000000 au

0 1
  O     44.64069121      9.17290809     12.02974467
  H     44.53706126      9.39332488     12.95833353
  H     45.53055877      9.39388438     11.74530626
  O     17.87446519      6.77766272     16.76243726
  H     18.50691483      7.49536503     16.84312720
  H     17.20906415      7.00871653     16.11016768
  O     23.59812767     45.43771060      8.07318852
  H     23.88058323     46.15713749      7.50376442
  H     22.64885254     45.48863903      8.20691595
  O      4.56870584     44.03404875     25.65914057
  H      4.89738925     43.13265633     25.62659942
  H      3.95142768     44.12391122     26.38886135
  O     36.15627387     12.41016285      4.30582967
  H     36.52195021     12.97963199      3.62495838
  H     35.31682582     12.05241311      4.00759805
  O     41.92338234     32.92455511      2.17051690
  H     41.49590217     33.61578562      1.65957552
  H     42.59461575     32.49747958      1.63325327
  O      5.85795362     21.41397775     19.62897622
  H      6.38544925     20.73274622     20.05238141
  H      5.48232076     21.99067411     20.29824542
  O     25.51519939      0.56522684     15.14135457
  H     26.25639011      0.31828376     14.58345185
  H     24.89446460      1.09355863     14.63425118
  O     17.02144376     16.88749072     23.12828898
  H     17.54644051     16.23294269     22.66187146
  H     16.44973204     17.34258663     22.50568684
  O      8.11187296     49.00242187      8.97077699
  H      7.46719447     48.63407729      9.57930959
  H      8.87191875     49.32091360      9.46321320
  O     33.18834006     19.67444136     28.80826555
  H     32.80276278     18.80702240     28.66503672
  H     33.93741141     19.59779902     29.40376373
  O      9.52410152     27.30272341     13.73613890
  H     10.12070938     26.78945028     14.28587498
  H      9.18555074     28.04712738     14.23897696
  O     40.02898102     17.82747461      3.63524619
  H     39.28598548     17.48125629      4.13493660
  H     40.83593849     17.71799085      4.14360920
  O      2.89151688     18.39798143     11.99496809
  H      2.61116559     18.26727332     12.90376870
  H      3.76321618     18.79997827     11.98318321
  O     22.78535473     29.58544115     12.75016754
  H     22.78010212     30.33183526     13.35387960
  H     22.25945934     29.79638116     11.97522345
  O     19.59157573     32.11722202      2.03499188
  H     18.77284880     32.53101639      1.75204237
  H     20.08603324     32.72865466      2.58568408
  O     22.28216607     41.75795055     21.69270602
  H     22.17286757     42.62283097     22.09474544
  H     23.18532553     41.45786368     21.81860622
  O      9.09762838     46.72381843     13.67927201
  H      8.97211517     47.66681193     13.80815061
  H      8.87359938     46.25726323     14.48781221
  O     18.15100566     36.71311797     19.84493905
  H     17.33678419     36.23097464     19.68313298
  H     18.26867192     36.83536728     20.78982516
  O     27.34197398     22.41510489      8.13733810
  H     27.02162144     23.16074635      8.65016660
  H     28.28970887     22.32479250      8.26079759
  O     33.78119683     43.87048934     18.56501379
  H     33.70943524     44.29601910     19.42255370
  H     34.47308559     44.29577609     18.05313380
  O     38.34272944     33.90059241     15.26941555
  H     39.26883047     33.65083088     15.30886244
  H     37.97898827     33.92384964     16.15753236
  O      7.49228745     12.05970370     13.93759079
  H      7.26205888     12.12903080     13.00818853
  H      6.73729144     11.73103066     14.43110378
  O     31.27214699     38.80676067     26.76034014
  H     30.60851526     38.42256389     27.33790898
  H     31.85129283     39.37631100     27.27200654
  O     22.78779630     29.73696104      3.71596985
  H     23.37928275     29.27587786      3.11668186
  H     22.15758742     30.25432817      3.20924703
  O     47.57560610     45.00960123     11.05543499
  H     47.61858300     44.17132606     11.52131881
  H     47.60830534     45.73027247     11.68880986
  O     16.26736652     34.01970848     18.67753689
  H     16.25403264     34.47713266     19.52144762
  H     15.92533148     34.59966709     17.99324160
  O     34.25632149     18.13835125      8.08109451
  H     34.15306234     17.20086093      7.90207094
  H     33.86835785     18.64604920      7.36462608
  O      3.11237906     48.76766563      3.99627317
  H      3.32758189     49.43517639      4.65180130
  H      2.65015148     49.17747289      3.26142375
  O     49.12571929     19.36433930     21.63735044
  H     50.05570876     19.31589124     21.87052927
  H     48.60207987     18.93364385     22.31698505
  O     30.93123074      9.24179311      2.36087253
  H     31.47977100      9.93683588      1.98990198
  H     30.00616394      9.44706071      2.20687046
  O     18.03930772     16.16132352      1.20785981
  H     17.50838918     16.14702471      2.00756041
  H     18.95997951     16.30777868      1.43701990
  O     21.81168233     30.17742456     18.76170322
  H     22.01510833     30.59289303     19.60289513
  H     21.10715200     29.53667198     18.88283597
  O     11.81844746     37.37800829     18.15737142
  H     11.33497244     38.11841359     18.53107170
  H     11.20440894     36.67536360     17.93187836
  O      3.20756500     48.06299680      6.48154671
  H      2.46128508     47.49609824      6.68961478
  H      3.02923763     48.95404142      6.79112519
  O     16.49063540     14.33941072     25.82015412
  H     16.75641665     13.80053563     25.07143924
  H     15.53754375     14.29367403     25.92562666
  O      0.97404220     14.80754312      4.98550510
  H      1.11783683     14.05337458      4.40917800
  H      0.82967340     15.59396186      4.45418297
  O      6.51154690     45.38910935     27.44223365
  H      5.75979728     45.88561491     27.11063943
  H      6.77070352     44.72944257     26.79471717
  O     12.15348893     46.37418682     18.76187874
  H     12.26990743     47.00451683     18.04722440
  H     11.67643497     46.79163052     19.48282276
  O      2.95520380     10.85119895     16.85625158
  H      2.70251966     11.37053668     16.08941454
  H      2.92137604      9.91738349     16.63615074
  O     34.15157421      2.26149082     18.17415458
  H     34.06817151      2.83690917     18.93805098
  H     34.12722451      2.78827499     17.37196661
  O     46.17352405      7.21789489      0.56049784
  H     45.46064853      7.80826593      0.81519477
  H     45.95008278      6.78354245     -0.26594754
  O     27.87707528     26.97285076      2.69061557
  H     27.44553144     27.23756738      1.87495938
  H     28.73134463     26.58376368      2.48953071
  O     33.45401309     15.92634479     19.47674217
  H     32.59635802     15.62745100     19.78769280
  H     33.95202663     16.29132947     20.21183992
  O     11.08081876     21.79246964     27.00575167
  H     11.67734210     22.22305352     27.62248292
  H     11.48009913     21.77504922     26.13289904
  O     12.40999497      2.02291761      5.75403722
  H     11.82189498      1.31702904      5.47572132
  H     12.42929710      2.70778222      5.08158805
  O     14.50634868     22.61946427     23.89505430
  H     15.33962799     22.34202432     23.50740412
  H     14.41714282     23.57196829     23.81518932
  O     16.14865351     35.79273534      5.84166657
  H     16.20989221     36.51192492      6.47460905
  H     15.47021879     35.17474295      6.12346748
  O      5.70498962     16.98645210     16.61422278
  H      6.62999665     17.04193143     16.36345588
  H      5.40779943     16.07636233     16.54340883
  O     42.37547531     20.72413562      6.03675953
  H     42.81557991     20.08446295      6.60131849
  H     41.45795813     20.81097939      6.30549805
  O     46.48160172      3.27003166     -0.14949707
  H     45.77120783      3.28456848      0.49604860
  H     46.25677967      2.66464644     -0.85982360
  O     29.88697322     39.66832190     13.45335886
  H     29.29938546     40.29563085     13.02577950
  H     30.38582944     39.19069227     12.78656624
  O     13.12013130     16.20547334     19.02581413
  H     12.92300040     17.14439294     19.06001056
  H     12.45646044     15.72042357     19.52166463
  O     18.55251287     16.70173467     15.16256612
  H     17.94293246     16.17618693     14.63929630
  H     19.40061148     16.74879457     14.71522495
  O     41.27291846     50.05934283      4.44564711
  H     40.51024545     50.37398430      4.93649395
  H     41.27851096     49.09936290      4.44295453
  O     41.56430809      5.23380590     20.59352331
  H     41.73799158      6.17489553     20.66957818
  H     41.15565681      5.05096124     19.74430487
  O     45.20919294      2.20195920     17.08850472
  H     45.79960679      1.69156293     16.52948134
  H     44.65014708      2.75790587     16.54079034
  O     38.74912236     14.98991780      5.50407507
  H     38.10870151     14.48612171      4.99648208
  H     39.61336542     14.91648910      5.09262378
  O     24.26939666     24.22623270     18.03583215
  H     23.91776501     23.61351586     17.38580657
  H     24.37947605     25.09121230     17.63421937
  O     39.68868715     28.04654903     19.52496514
  H     38.79327575     28.24389248     19.80938384
  H     39.96226077     28.68459152     18.86189706
  O     24.54527576     39.57194185     14.50560063
  H     25.29965683     39.83864063     13.97514709
  H     23.82715790     39.30194064     13.92853384
  O     13.46027135     45.21799710     16.11367955
  H     14.35043886     45.34584177     15.77773679
  H     13.35948320     45.69163390     16.94260050
  O     35.71263914     48.23060034     26.98175030
  H     35.30320845     47.54205711     27.51078218
  H     36.12061493     48.87917554     27.56011522
  O     29.90015506     26.51621262     16.14768400
  H     30.53639325     26.13397349     15.53883737
  H     29.05196028     26.60973881     15.70789034
  O     40.70293654      3.13638564     22.36108509
  H     40.83145487      2.36262521     21.80757100
  H     40.56934345      3.90851306     21.80649322
  O      7.23187143     19.71638579     18.49643158
  H      7.10288947     19.80557246     17.54932578
  H      8.03903822     20.16785402     18.75383829
  O     43.90209912     47.84900733     25.59107656
  H     43.75001096     47.87557936     24.64357293
  H     44.82613870     47.65263928     25.76192868
  O     45.26476353      1.60557303     23.27498731
  H     46.14257417      1.82724389     23.59422157
  H     44.79674405      1.10399516     23.94653583
  O     48.61760260     27.04601174      5.65788675
  H     49.34608305     27.61697440      5.40309688
  H     48.63226463     26.91269669      6.60847190
  O     29.71932206      5.11219753      8.20174345
  H     30.31966833      5.44214720      8.87428904
  H     29.27463723      4.32601467      8.52696938
  O     43.95956686     30.51245509      4.95023070
  H     43.89241349     31.43034432      5.22330539
  H     43.28975302     29.99390524      5.40195570
  O     10.82879267     28.09934830      7.98234945
  H     10.04232981     27.81937514      7.50833341
  H     11.50110170     28.37316909      7.35415940
  O     47.41952501     15.77685498     18.99881816
  H     47.62702389     14.86805439     18.76941523
  H     47.46789854     16.32497759     18.21216601
  O     21.72403341     13.32654183     24.05366111
  H     21.39476269     12.67011755     24.67195551
  H     21.12227010     13.39551418     23.30886333
  O     35.68139571     44.15017916      3.74788840
  H     35.47616011     43.22799870      3.91836289
  H     36.42775883     44.41772640      4.28914672
  O      2.21186670     17.29871330     24.09670683
  H      2.25666625     18.24177390     24.27057372
  H      3.05831543     16.89459381     24.30118661
  O      2.01917594      8.07900046     26.23165487
  H      1.22400324      7.78088761     26.67934797
  H      2.34371184      7.38199662     25.65679654
  O      4.45134975     49.22332306     29.68534955
  H      3.74329119     49.85990729     29.80787958
  H      4.40177142     48.55298818     30.37076412
  O      2.74877310     11.92471146      5.87961393
  H      2.09626683     11.92817169      6.58376136
  H      3.18331100     12.77987247      5.84118911
  O     45.92469231      4.43251731      7.92705204
  H     45.44568543      3.73862226      7.46807265
  H     46.24500658      5.07579377      7.29050341
  O     27.10526500     32.47577686     29.82457379
  H     27.03995772     32.64582239     28.88201372
  H     26.53853501     33.08723163     30.30053617
  O     11.79400910     20.14348900     21.62689325
  H     11.46282193     21.03229699     21.47878714
  H     12.22278878     19.82426418     20.82949530
  O     29.19990626      3.99734918      3.66288777
  H     29.48236802      4.70652588      3.08075053
  H     28.61264848      3.40616419      3.18620274
  O     25.49010766     13.72070337      0.79057624
  H     26.02766628     14.50531348      0.66012429
  H     26.05486586     12.98068069      1.02512818
  O     24.81816755     25.25578809     13.28668338
  H     25.37185345     24.57984194     12.88902934
  H     24.36266546     25.74369878     12.59671164
  O     37.17070743     32.21031426      7.55668142
  H     36.46511695     32.69258942      7.11947124
  H     37.66310316     31.70362478      6.90674895
  O     12.35984522     18.68991988      9.72141782
  H     11.89982832     19.09960976     10.45771847
  H     12.41234810     19.31067887      8.99100579
  O      4.11120174     10.34291506     19.84464131
  H      3.19783685     10.41830754     19.55884319
  H      4.63368603      9.94276714     19.14571943
  O     20.68898068      4.98851693      6.86653177
  H     21.57234271      4.78196036      6.55251600
  H     20.62819651      4.79229519      7.80429630
  O     25.68690160     11.54248892     19.42077144
  H     25.36162375     11.43319917     20.31734830
  H     26.62165507     11.76004038     19.44329528
  O     19.22701781      8.88234688     29.58082098
  H     19.39679845      9.25196791     30.45039262
  H     18.65838788      9.47644555     29.08553644
  O     13.45229001     31.53788295     13.63885829
  H     13.64448174     32.43140773     13.34513085
  H     14.22538861     30.98411365     13.50748808
  O     26.14811627     19.15200403     27.80920665
  H     26.98816433     19.54321026     28.05995939
  H     26.19452243     18.19886047     27.91391500
  O     29.93797749     44.14920538      9.91447011
  H     30.26169575     45.00293581     10.21103518
  H     30.56302556     43.46490696     10.16477110
  O     26.21666897     29.42925676     19.76889673
  H     26.73708076     28.65018560     19.97822827
  H     26.75803829     30.21469962     19.87659439
  O     29.26117097      6.78645530     22.73814377
  H     29.91391038      7.44702905     22.98140000
  H     29.37968446      6.54278203     21.81717803
  O      2.67184188     24.09528370     29.92733864
  H      1.89212412     24.53165219     29.57630766
  H      3.43060754     24.67711229     29.84160545
  O     35.54015032      4.69885455     14.86498791
  H     35.99639347      3.92438729     15.20209716
  H     35.48257497      5.36289264     15.55588479
  O     30.65381995     44.54466318     13.34443663
  H     29.83563118     44.32810973     13.79750589
  H     31.31148689     44.82285055     13.98606424
  O     20.79007076     34.04889648     26.57168277
  H     21.44831418     34.07998196     25.87357870
  H     20.79968401     34.87638803     27.05826814
  O      4.26284660      6.46142827     18.84318473
  H      4.48997986      5.78415373     19.48451902
  H      3.78538821      7.16999315     19.28087104
  O     42.77162771      4.55936290     12.73920293
  H     43.54466825      5.01734478     13.07722796
  H     41.99795996      5.11858071     12.84075907
  O      4.47004333      7.58074011     10.41090227
  H      5.29759135      7.80584453     10.84228640
  H      3.85583610      7.22910875     11.05951993
  O     26.91310570      4.07943705      4.12089131
  H     26.73366194      5.02038781      4.05755414
  H     26.52892424      3.73368419      4.92987807
  O     40.15941291     35.18504865     10.07195915
  H     39.56294987     35.72935045      9.55276035
  H     40.67759306     35.74422840     10.65540354
  O     10.71663069     42.29416275      6.21175751
  H     11.29325205     43.05789654      6.13547834
  H     10.87749477     41.69660224      5.47783368
  O     36.21104146     29.09285966     10.03942491
  H     37.09505751     28.72032112     10.00294653
  H     35.73692618     28.87242741      9.23430111
  O     39.16668637     34.27669174     27.21725749
  H     40.09718984     34.44946286     27.37823399
  H     38.64379323     35.01662509     27.53456082
  O     12.14385380     40.57364411     13.20716717
  H     11.53551544     40.10342448     12.63234724
  H     12.78760744     41.04627488     12.67443701
  O     26.73538626      7.17582840     23.34960933
  H     27.33925874      7.83612699     23.00183956
  H     27.21139084      6.35694181     23.50595642
  O     21.64864143      7.04187861      3.26611400
  H     21.79840449      7.95548798      3.01216725
  H     22.41925099      6.51595593      3.03991444
  O      1.35371263      4.17412492     27.67148193
  H      0.92633083      4.32937535     26.82599858
  H      0.69665504      3.90705300     28.31843472
  O     32.96796667     20.63648958     18.20979729
  H     33.14103749     19.83527720     18.70950242
  H     33.14759771     20.47931792     17.27994259
  O     38.67187447     21.56146574     24.14325654
  H     39.27059094     21.90522445     24.81031615
  H     37.88399907     21.21447037     24.56804657
  O     41.84465589     35.13954541     28.27672911
  H     41.52091399     35.94500915     28.68663074
  H     42.09473372     35.32070348     27.36775011
  O     36.94750054     34.97232140     12.82442671
  H     36.89744016     35.69711703     13.45193389
  H     36.82490312     34.13963987     13.28617485
  O     15.26540890      7.84416700      1.39510510
  H     14.91414676      8.53122411      0.82399440
  H     15.04836875      6.98280725      1.03102687
  O      5.98696826     49.38970515     21.21413994
  H      5.76751107     48.54103444     21.60554327
  H      5.23927630     49.98555033     21.30088828
  O     11.12444426     48.94900089     20.62794164
  H     10.95722062     48.47356719     21.44500899
  H     11.02272812     49.89155885     20.77906515
  O     13.36419223     15.37764959      6.19529664
  H     13.29972991     14.48053335      5.85969706
  H     13.03140818     15.40781185      7.09526609
  O      4.82768505      8.47173394     21.78108964
  H      5.16507168      9.16607508     21.21042280
  H      4.42803251      7.78259302     21.24540069
  O     37.36787270     44.14215212     13.34012875
  H     36.87628011     44.66774317     13.97549540
  H     38.25874005     43.99560958     13.66644246
  O     39.97408724     27.84911339      2.94490015
  H     40.58226651     28.50198597      2.59067513
  H     40.44554224     27.02991714      3.11297067
  O     48.75806058     38.12165683     29.42215193
  H     48.91355873     38.92244389     28.91602899
  H     48.93897807     37.35528828     28.87301797
  O     12.50345541     44.99539750     20.27037130
  H     13.06487868     45.23354496     21.01178192
  H     12.31890545     44.05369890     20.29766708
  O     14.86281838     -0.42678943      5.52739044
  H     15.46978082     -0.77614465      4.87077218
  H     14.10069048     -0.04323088      5.08734054
  O     18.02508873     13.88568398     -0.12711478
  H     17.48925876     14.20212217      0.60387983
  H     18.81466033     13.46011095      0.21503180
  O     19.91538755     45.46729845      8.62583298
  H     20.41868446     45.12165347      7.88500792
  H     18.99178861     45.22493850      8.52670350
  O     20.06061061      7.70180519     18.61781467
  H     20.16672660      8.47049073     19.18302432
  H     19.19076226      7.31994069     18.75617421
  O     38.54677128     11.98398487     25.13787216
  H     39.29111237     12.22068801     24.57972526
  H     38.55999271     12.52017149     25.93406881
  O     10.59066336      7.36760025     18.41473885
  H     11.27580138      7.49517754     17.75450409
  H      9.79875087      7.02619511     17.99293660
  O      9.27329524     46.88506621     20.87956198
  H      9.98565318     46.36634323     21.26044600
  H      8.76018158     47.28981722     21.58276252
  O     19.42102654     22.75019559     27.83994816
  H     20.04279419     22.71026176     28.57029758
  H     19.10298102     23.65030522     27.73870737
  O     38.19640565     15.62321144     21.06435193
  H     38.21409382     14.77646785     20.61234261
  H     37.94846380     15.49130144     21.98235226
  O      3.81639462     40.52116100     29.24515678
  H      3.45050078     39.64039420     29.13574224
  H      3.90120046     40.71899165     30.18071598
  O     43.78520413     27.12422376      2.26124010
  H     43.36227682     26.77813346      3.05051445
  H     44.73848607     27.10149387      2.37231172
  O     33.81776471     14.68937203     12.69472872
  H     33.14442922     15.35843475     12.55129090
  H     33.99911365     14.23499673     11.86874103
  O     43.41289768     27.72649035     25.49722030
  H     43.64430021     26.82796044     25.25085292
  H     43.29250777     28.25509402     24.70495492
  O     29.81350317     45.14811975     16.72219925
  H     29.97159130     45.37856846     15.80377586
  H     28.90209236     45.34582719     16.94988790
  O     47.79137681     12.99427605     20.19984892
  H     47.72299928     12.54762707     19.35283699
  H     48.48581056     12.58619459     20.72218146
  O      4.89805614     23.33848449     15.31608062
  H      5.73105513     23.76093195     15.53800592
  H      4.20124590     23.69088632     15.87453245
  O      3.05615012      5.05012972     26.67429701
  H      2.78173838      5.43103191     25.83691315
  H      3.04879303      4.09241885     26.60845038
  O      6.92812957     14.58312344     13.08435997
  H      7.59784364     14.20025048     12.51296574
  H      6.44963253     13.88153473     13.53203605
  O     30.56614008     48.94352403     19.57559202
  H     31.43714888     48.87145195     19.17841538
  H     29.97203043     48.31322317     19.16164209
  O     29.37914391     28.73746730     19.91002953
  H     28.78673434     29.48891774     19.98731554
  H     28.92339987     28.01361189     19.47421911
  O     33.75578234     32.36648340     18.18213652
  H     34.40229023     32.12885609     18.85083736
  H     32.93257563     32.61783082     18.60728966
  O     29.19041678     35.06059598      2.44767552
  H     28.70820649     34.62671483      1.73998888
  H     30.10317748     34.76320091      2.44276926
  O     35.50966477     17.90819031     28.24991079
  H     34.69486022     17.59732715     28.65123066
  H     35.30533528     18.41159911     27.45843808
  O     34.52089140      8.53695751      7.72907080
  H     33.87587877      8.18583692      8.34735312
  H     35.14604799      9.09319842      8.19957616
  O     12.08059349     17.65442352     30.03115761
  H     11.33730660     17.18441979     30.41615253
  H     11.82612858     18.56192173     29.84868954
  O     37.30384969     40.47042304     10.65613248
  H     36.49731516     40.45332814     11.17652638
  H     37.19858186     39.91055666      9.88343052
  O      0.94875702     26.49640024     28.40381737
  H      0.46015409     25.86043860     27.87616221
  H      0.33301151     27.05318300     28.88594850
  O     24.50210547     48.38320797      5.21190925
  H     24.53652898     47.77848368      4.46711159
  H     25.26741402     48.96236832      5.19008945
  O     18.06692192     38.48251061     14.57146629
  H     17.90867729     37.54069815     14.66917982
  H     17.98374645     38.91179726     15.42609768
  O     20.09136822     43.65297506      5.84740847
  H     19.22260110     43.72734966      6.24904527
  H     20.00156562     43.33485649      4.94611159
  O     39.77018352      3.86357264      2.39004733
  H     39.99412156      4.52345195      3.05035867
  H     39.49342759      3.05455227      2.82650144
  O      5.01372822      3.47741072      8.78633283
  H      5.92482517      3.65661054      9.03003301
  H      4.64523815      4.24266691      8.33889787
  O     25.18547793     21.83911201     28.79205400
  H     25.62113304     20.99383398     28.66048773
  H     24.25484383     21.75783563     28.57088814
  O      5.80737406      1.29058016     26.11606365
  H      5.31830486      0.64444736     25.60135625
  H      6.23776810      1.91218155     25.52447875
  O      9.90163005     17.12151101      4.53915162
  H      9.10738693     17.63929273      4.38855298
  H     10.08832015     17.08744782      5.48020768
  O     27.46171861     47.99360063     10.99129833
  H     28.28456089     48.38389183     11.29494840
  H     27.07976757     47.46345030     11.69461479
  O     19.43550739     49.78197383     13.59875506
  H     19.42675983     50.61143244     13.11551402
  H     19.92403869     49.12452908     13.09805198
  O     12.38547072     19.43621696      5.59297279
  H     12.80782193     19.37843862      6.45313622
  H     13.05351702     19.56722923      4.91610505
  O     27.23391120     29.49763114     17.70591994
  H     28.05799273     29.21121984     18.10649229
  H     27.13211711     29.07900197     16.84802275
  O     34.24344831     34.46971708     20.06592798
  H     33.71265861     34.40536088     20.86324885
  H     33.73530887     34.90398349     19.37686558
  O      5.53811360     22.92057021      3.63475995
  H      6.02084290     23.09707868      2.82394729
  H      4.59918163     23.05168763      3.48371366
  O     49.10780745      1.55583594     16.98961828
  H     49.48640027      1.78369220     16.13735716
  H     48.88741925      0.62157013     17.00290139
  O     38.99633725     26.10405500     12.29066527
  H     39.50553027     26.65974599     12.88524916
  H     38.18801547     25.82458991     12.72668726
  O     47.76243320     12.87169513      1.19872695
  H     47.13390141     12.99363559      1.91404388
  H     48.56320691     12.46781025      1.54112799
  O     25.75364757     12.66744596     16.95423689
  H     25.21745910     13.05071189     17.65224058
  H     26.13098093     11.83876174     17.25837831
  O     38.42248865      1.55844555      9.45092296
  H     38.51334815      0.64298312      9.72528239
  H     37.52206138      1.71746959      9.15844718
  O     27.68469280      1.13684789     11.48783370
  H     27.33496692      1.76959298     12.11943916
  H     28.42429241      0.66742298     11.88055837
  O     19.42405561     24.32261979     23.27938985
  H     18.56973992     23.89197148     23.35867879
  H     20.11850702     23.70235638     23.51307885
  O      9.95601989     43.75234185     24.86754277
  H      9.20616102     43.24810677     25.19167031
  H     10.66375638     43.72656766     25.51565137
  O     15.88579966     26.14060942     10.75483699
  H     16.55339834     26.39338511     11.39672208
  H     15.13534490     26.73553233     10.82180251
  O      7.98615132     30.32854013     20.94319025
  H      7.51068709     31.08628786     20.59483390
  H      7.71119761     29.53568420     20.47695004
  O     30.14922113     44.73276974      5.88041201
  H     29.37614916     44.95256273      6.40543656
  H     30.77114487     44.23680731      6.41784306
  O     27.70765767     17.45043125     17.69186160
  H     27.00684776     17.40466948     17.03736078
  H     27.33407765     17.34184349     18.56949859
  O     40.64622514     29.90154318     26.15255296
  H     40.87361343     28.97398466     26.05493247
  H     39.85456483     29.98262289     26.68948874
  O     25.76765369     16.78259301     25.36210597
  H     26.32893124     16.05385933     25.63690541
  H     25.26482857     16.52480775     24.58601727
  O      4.99387384      0.49491663      4.88748423
  H      4.28094216      0.36191366      5.51648236
  H      5.74391930      0.89537373      5.33320379
  O     29.53394697     40.93065947      2.65667880
  H     30.29896178     40.49928467      2.26903448
  H     28.77453022     40.34591344      2.60228884
  O     17.63870729     13.23602925     13.94680425
  H     17.88674016     14.06318249     13.52740323
  H     16.78456013     12.95132402     13.61367429
  O     32.06903689     22.36590927     22.36286814
  H     32.62614222     22.02021798     21.66163267
  H     32.32030700     23.27245126     22.55429690
  O     41.25584805     24.99318965     13.11072362
  H     40.54768604     24.65589832     13.66420453
  H     42.10108964     24.69518896     13.45476177
  O     12.51688620     47.71346417      7.04444615
  H     13.10293306     47.95689285      6.32410487
  H     11.66898994     48.14852606      6.92871765
  O     30.78415493     17.69944592      0.13190244
  H     29.84902942     17.72125672      0.34792230
  H     31.17927262     16.90499982      0.49842312
  O     18.64839513     15.00104143     25.92714149
  H     18.76491350     14.21005031     25.39576919
  H     19.48832427     15.24991222     26.31980212