#B3LYP/6-31+G(d) OPT FREQ

5100, Energy =      0.00000000 au

0 1
  O     45.22719364     48.08154396      7.54112472
  H     45.06050452     47.13643620      7.56533343
  H     45.77259603     48.33006403      8.29104072
  O     30.92090092     45.12705585     28.10473418
  H     30.51906742     45.88682455     27.67708785
  H     31.35792658     44.58246587     27.44592440
  O      5.40486222     22.11602872     28.83071643
  H      4.77812885     21.62918242     28.29054427
  H      5.98860588     22.62542771     28.26383372
  O     45.37665955     19.41501340      3.50909332
  H     46.21440453     19.80018311      3.24183383
  H     45.06043730     18.82602620      2.82011032
  O      0.62827453     36.19714947      2.40183103
  H      0.33972353     35.47412446      2.96359001
  H     -0.05378728     36.39233604      1.75507459
  O     18.48184800     26.95855094      7.11599280
  H     17.66941399     26.44811078      7.08434110
  H     19.12436992     26.50447047      7.66606235
  O     24.87017721     28.08016243     17.80242609
  H     24.96972151     27.47824579     17.06121944
  H     25.48207381     28.81333740     17.70425777
  O     41.99219989     33.80872770     22.55003108
  H     41.19889909     33.72122599     22.01653573
  H     41.84221875     33.41764718     23.41383759
  O     28.91355646     43.72425570      9.27256149
  H     28.83935087     44.65550725      9.05150925
  H     29.04623030     43.21403884      8.47026703
  O     41.04039735      4.79333622      3.37006706
  H     40.25645698      4.41338171      2.96674080
  H     41.46849987      4.13436353      3.92150448
  O     48.13200838      3.86239289      6.94703347
  H     48.12948041      3.32242816      6.15328810
  H     47.70241320      4.70143101      6.76520110
  O     30.22981237      6.77906073     13.87605914
  H     31.12346283      6.90439227     13.54852154
  H     30.06582090      5.84263773     14.00954611
  O     27.18107698      8.61419213     17.43688918
  H     27.24252860      8.49938054     16.48576247
  H     26.65517966      7.90407393     17.81207467
  O     18.42279970     44.28811437      2.08735575
  H     18.16280667     43.47756075      2.53120983
  H     19.37775390     44.38018951      2.12177445
  O     48.53814591     23.10020744     29.34054759
  H     48.67181577     22.34751263     29.92122210
  H     49.38907608     23.43144251     29.04423496
  O     12.44427783     37.29814341     17.04863734
  H     12.86249994     37.12051029     16.20297977
  H     11.97482079     36.51487413     17.34477806
  O     -0.02697583     30.64564375     16.96678451
  H      0.10173771     31.20476234     16.19709677
  H      0.10347294     29.72688618     16.72088281
  O      3.66572968     37.55808198      3.84275858
  H      3.96229587     38.15959653      3.15586065
  H      4.25761014     37.61545605      4.59640687
  O     23.00960704     14.61313731      6.63130862
  H     22.32466438     15.06227745      6.13058245
  H     23.37820170     13.90134143      6.10302402
  O     13.01918340     29.58601724     16.91137121
  H     13.31519366     30.06410179     16.13328826
  H     12.64304912     28.74357244     16.64602282
  O      3.12804158      9.01293011     11.17067451
  H      3.80594055      9.68994087     11.23157956
  H      2.32800323      9.32073272     11.60287378
  O     29.94060199      9.23785543      5.02295731
  H     29.95020100      8.65227585      5.78361782
  H     30.02730867      8.72035677      4.21904370
  O     29.76996365     28.83302408      8.52303140
  H     29.65089665     29.64468096      9.02166571
  H     28.92007405     28.53164923      8.19369743
  O     40.66857439     31.60018831     24.97890709
  H     41.26250653     31.09158318     24.42198211
  H     39.96144232     31.03308590     25.29507017
  O     14.68975711     46.42352285     18.93924383
  H     14.63888398     47.28829409     19.35298606
  H     14.34823847     45.75918450     19.54225259
  O     19.91665190      9.83271624      5.36975985
  H     20.78141573     10.17646141      5.13391506
  H     19.99718620      8.91111843      5.62621980
  O     35.65402876     16.55950497     -0.00072693
  H     36.55442954     16.88497620     -0.07106133
  H     35.05176939     17.19551814     -0.39362755
  O     43.61966751     27.09379472     10.53332667
  H     44.08899209     26.26055552     10.44938105
  H     44.07149593     27.65343885     11.16913287
  O     20.83021679     42.35710401     23.78238089
  H     21.03413975     41.61926803     23.20305930
  H     20.80710474     43.16920911     23.27096019
  O     49.63220962     27.90421140      2.61400549
  H     50.58852820     27.97993766      2.57766939
  H     49.39215479     27.07025114      3.02447349
  O     39.35498797      2.64855551      6.81738504
  H     38.94953989      3.17856861      6.12724160
  H     39.96208668      2.01838351      6.42252504
  O     15.60946692     14.62382381     12.72575806
  H     14.73304476     14.89737733     13.00620892
  H     15.53295326     13.93315651     12.06339537
  O     14.99706274     45.91778051      8.03338994
  H     14.29189650     46.16989009      7.43273917
  H     15.75155446     45.60538144      7.52866321
  O     34.59472318     48.05504036      2.33929535
  H     33.74015194     47.63528251      2.46222350
  H     35.28657843     47.39060558      2.37754120
  O     15.88574811      1.30157460     18.75767488
  H     16.20287299      1.34270489     19.66284896
  H     15.48481163      0.44418941     18.59723618
  O     25.06800705     40.17779812      1.18993630
  H     25.71359413     39.61837938      1.62796369
  H     25.09918508     40.02233892      0.24312039
  O     25.51561709     16.31106967     11.31681283
  H     25.60392948     15.44240422     11.71583822
  H     26.20576061     16.88879291     11.65078557
  O     44.97601829     29.67774911     20.18756749
  H     44.06603147     29.67433382     20.49336536
  H     45.21005572     30.55922064     19.88784358
  O     20.49131946     41.36983288     25.50015113
  H     20.19381546     42.03819958     26.12174370
  H     21.23539288     40.89256396     25.87454280
  O     34.62059147     27.58652115     13.12107442
  H     33.89479595     27.05728094     13.45978620
  H     34.29497661     28.17707026     12.43782724
  O      2.07813488     19.02910026     13.03884374
  H      1.33254441     19.28333609     13.58753218
  H      2.74897393     18.61088973     13.58352246
  O     38.06957874     31.27168765     18.33893315
  H     38.51017823     32.07254259     18.04549924
  H     37.13337459     31.32752246     18.13398375
  O     46.67299506     42.57481938     19.89442706
  H     45.96292829     42.89090066     19.33095762
  H     47.38279351     42.22600750     19.35026124
  O     28.20429182     23.67433834      1.04112020
  H     28.26859662     22.72079697      1.13180514
  H     28.11436772     24.07349084      1.90956187
  O     38.76561460     45.37660108      9.86487190
  H     38.03116385     45.57433326      9.27913810
  H     38.53441836     44.63570843     10.42987313
  O     39.57982106      8.00823396     17.61592102
  H     38.81497904      8.42090696     18.02374167
  H     39.71587400      7.13787543     17.99745166
  O     20.56933835     41.27102773     13.36763943
  H     21.27619837     40.84535162     13.85830099
  H     19.94303272     41.66140264     13.98160090
  O     13.97291560     38.03814337      3.91603780
  H     14.66836475     38.69859547      3.95791250
  H     13.62482220     37.88301984      4.79715510
  O      4.16607380     19.24026543     28.51750677
  H      4.22436863     18.96295810     27.60028141
  H      4.98265326     19.67547279     28.77322643
  O      5.58227631     43.37054467      1.98988667
  H      5.63504629     43.83268781      1.15010155
  H      4.89243092     42.70435435      1.94625405
  O     21.17830437     39.18275386     26.92425377
  H     21.26090033     38.31122359     26.53028307
  H     21.61078097     39.18930298     27.78129583
  O     16.59560656     23.06532136      6.76447738
  H     16.91432472     22.78972141      7.62706849
  H     15.68031196     22.79537032      6.65977670
  O     23.69487597     -0.57632421     26.07103012
  H     22.83068323     -0.22419960     26.29637249
  H     24.37736371      0.00087959     26.42123899
  O      2.16212218      8.03511239     19.83107112
  H      2.91606252      8.57633772     20.07652806
  H      1.65532419      7.81646450     20.61653207
  O     47.06400310      9.73069594     23.18684252
  H     47.60089359     10.47728592     23.46243642
  H     46.51065240      9.44663971     23.91808466
  O     37.42304204     33.39282418     10.85689804
  H     37.87035971     33.28888682     10.01386545
  H     37.41020956     34.32130534     11.10053313
  O     20.77546418     19.46987497     14.86045921
  H     20.39347006     18.72289267     15.32704033
  H     21.73034620     19.45448717     14.95825254
  O     18.26125083     18.21261964      6.55245777
  H     18.09989103     17.28404050      6.73495105
  H     17.76423444     18.47749409      5.77501566
  O     41.25256777     47.58235484     22.42432355
  H     41.38013277     47.67233668     23.37154604
  H     40.31310480     47.57106601     22.22713862
  O     16.75815710     34.55241615      3.43451346
  H     16.09574193     35.09864719      3.00505123
  H     16.96470468     33.79998393      2.87524263
  O     27.53871068     34.59291612      4.39626793
  H     27.73570189     34.89961937      5.28437129
  H     28.35391479     34.34207358      3.95567709
  O      1.74501067     11.43092002     18.67680492
  H      2.19749227     11.19184697     19.48902686
  H      0.90578256     10.96721867     18.62908446
  O     19.33370224     30.95826927      0.45980942
  H     19.65563234     31.83380358      0.68652659
  H     18.38125714     30.98731276      0.34316975
  O     24.55888444     47.47737119     22.70678530
  H     23.76607940     47.46237045     23.24792775
  H     25.33214669     47.53509667     23.27276520
  O      2.31988965     41.13633826     26.70572230
  H      2.28754773     41.99150568     26.27070197
  H      2.95088559     40.57087562     26.25439522
  O      5.75981941     45.48405514     25.82359375
  H      6.62006229     45.20392921     26.14470379
  H      5.17550012     45.64201543     26.56872429
  O     27.08833306     10.65127890     23.58780526
  H     27.67251268     10.15872176     24.16894348
  H     26.55164010     11.25345604     24.10832746
  O     16.11589110     40.90258846     14.20486787
  H     16.13941622     40.27287818     13.48063619
  H     16.78956622     41.57283817     14.06875335
  O     39.86696514     35.39432486     14.99678438
  H     40.76370413     35.15284717     15.23998740
  H     39.29900156     35.33644875     15.76857952
  O     35.01658405     24.90206709     18.88612440
  H     34.53355128     24.10456610     18.65749476
  H     34.75716310     25.19348321     19.76326602
  O     30.70997009     40.97123500     13.73748917
  H     29.84587212     41.11703092     13.34547100
  H     31.28037812     40.53280125     13.10187095
  O     10.83585818     16.05036872     10.14723657
  H     11.77728258     15.92992634     10.00296692
  H     10.53157330     16.81615107      9.65470422
  O     28.25523239     23.62510265     22.18759862
  H     28.99838181     23.74018225     22.78432773
  H     27.88438344     24.48303402     21.96845294
  O     23.03532274      6.92149553     26.40253877
  H     23.94911781      6.66939280     26.25080612
  H     22.68535238      7.34655815     25.61612760
  O      6.30499532      0.94607576     20.49423824
  H      5.85226732      1.78272023     20.36515144
  H      6.41984248      0.50977640     19.64685816
  O     19.43535539     24.70056315     26.45436884
  H     18.64314557     24.21503604     26.69575450
  H     19.92736989     24.92563563     27.24737837
  O     45.44438947     36.97284923      4.99377064
  H     46.05422266     36.43456802      5.50363025
  H     44.93093756     37.52526915      5.58773980
  O     35.37943303      0.90612240      0.49930691
  H     35.43780435      1.70491053      1.02858030
  H     35.34062780      0.14073703      1.07747591
  O     26.57938115     14.97038551     29.14674044
  H     26.93550699     15.64815508     29.72588014
  H     26.08611393     14.33153837     29.66651134
  O      8.07605027     34.57660838     13.55239760
  H      8.82798322     35.14069731     13.35746037
  H      7.52855069     34.49018702     12.76857647
  O     27.60469149     18.16004882     20.13712457
  H     27.87620173     19.03520379     20.42345650
  H     28.30563033     17.76153532     19.61609507
  O     31.34519120     42.65239487      2.34106527
  H     31.43792134     42.17384532      1.51402752
  H     31.63084478     43.56080436      2.21943374
  O     42.82405094     23.03843869     21.34385198
  H     42.22193300     23.52786156     20.77859164
  H     43.43759816     22.53784945     20.80110874
  O     38.01870639      8.67898625      0.33847357
  H     37.78714849      8.28118395     -0.50398372
  H     37.21972437      8.95911674      0.79097180
  O     30.54535417     41.19525438     15.79190175
  H     31.21118369     41.86502782     15.61963858
  H     30.78953259     40.69423349     16.57353783
  O     36.43193344     26.70910189     18.18242807
  H     35.65614496     27.27339768     18.21879430
  H     36.93492666     26.80309728     18.99468585
  O     22.50887503     36.35875400     27.72733812
  H     23.00156366     37.01387955     27.22766981
  H     21.57459497     36.57882556     27.71033030
  O     46.09610311     13.19114949      1.97302830
  H     46.99566623     13.00066501      2.24889396
  H     45.52314517     13.21535738      2.74291997
  O     39.49265652     26.56193341     14.74488601
  H     39.57412171     26.82197722     13.82437493
  H     38.57509538     26.35827995     14.94035164
  O     48.26706778     12.61728247     13.86100067
  H     49.15214293     12.27953665     13.70553449
  H     47.62323779     11.93535693     13.65591410
  O     49.18860453     38.67504211     23.30260141
  H     49.99752674     39.12661689     23.55424615
  H     49.39651969     37.95697530     22.70031298
  O     14.89812124     12.65283678      3.89616969
  H     15.32132918     13.26514093      4.50245236
  H     14.91534433     11.76865355      4.26969799
  O     21.81762763     26.24548453      7.30022101
  H     21.06914403     26.04732256      7.86776320
  H     22.46061350     25.53497585      7.35807079
  O     16.07769470     15.95081955     19.10227341
  H     16.64522580     16.19023712     18.36593946
  H     16.50233080     16.19684588     19.92735233
  O     17.10616757     20.75791420     28.24657087
  H     17.52596354     21.11150453     29.03419084
  H     16.34069553     20.23607743     28.49824316
  O     38.70120689     22.03244341     17.05219441
  H     38.74563220     21.08400179     17.19391558
  H     39.36952191     22.46792244     17.58634143
  O     34.80835684     48.73626259      0.33809712
  H     34.92442285     49.55199321     -0.15456121
  H     35.21238852     48.01075103     -0.14355772
  O     17.51715447     45.59068990      6.28528289
  H     17.41741612     45.64790919      5.33219412
  H     17.55259114     46.47490997      6.65743756
  O     46.91602399     33.47845084     27.94368425
  H     46.65520664     33.15865562     27.07690554
  H     47.55715794     34.18607446     27.84460807
  O     29.23792477      8.37553868     24.40726416
  H     29.09654756      8.16511047     25.33318665
  H     30.10331216      8.77657411     24.29829050
  O     13.01136926     46.96043985     28.66215262
  H     12.53948955     46.57821757     29.40568181
  H     13.50497879     46.27333863     28.20845496
  O     48.54901459     27.93337286     20.52366349
  H     48.61794741     28.80856124     20.13521328
  H     48.52325012     27.27429499     19.82613030
  O     25.15931680     27.23686187     25.60429696
  H     24.47355949     26.98351752     26.22651361
  H     26.00016153     27.30165706     26.06297084
  O     30.71714188      1.23981941      8.02446883
  H     29.78473714      1.46808362      8.01365869
  H     30.81643956      0.29216483      7.90746124
  O      3.55584588     34.88102508     22.51664146
  H      3.34300829     35.75367196     22.17783830
  H      4.24910163     34.95384781     23.17671216
  O     37.22368289     17.90417803     25.54717536
  H     37.41853386     17.90426680     24.60715776
  H     36.66795089     17.15064132     25.75917626
  O     20.10300365     21.58280169     20.11895899
  H     20.67482977     21.80641296     19.38098006
  H     19.82746421     20.66620649     20.04458657
  O     20.20107757      7.39222952      3.72823362
  H     19.58946071      6.74560164      3.36851540
  H     20.33607209      8.09579571      3.08919442
  O     15.67286872     12.17761980     13.51254589
  H     15.40719612     12.76679204     14.22240091
  H     15.82155137     11.29731042     13.86546071
  O     40.07900778     24.29009421     11.63346757
  H     40.93740867     24.20633719     12.05505110
  H     40.07067155     23.78104192     10.81959026
  O     12.81130820     38.53225362     26.25881969
  H     12.87652936     39.37575285     25.80510695
  H     13.30711093     37.86840333     25.77396667
  O      5.81847102     26.21992716      1.85578153
  H      5.45789415     25.97540139      2.71122964
  H      6.50669647     25.59800486      1.60847928
  O     32.40610508     46.88237338     18.69194920
  H     32.71502028     47.40446955     19.43598347
  H     32.08294602     46.03513801     19.00716412
  O     31.52857636     14.91647178     18.36850668
  H     30.65197059     14.72597225     18.71037254
  H     32.11231773     15.14817597     19.09456397
  O     25.57076102     50.47137538     14.92639894
  H     25.25494748     50.88590817     14.12015804
  H     25.28169251     50.98407331     15.68480532
  O     46.58360857     17.42490318      2.81028144
  H     46.31301463     17.00013508      1.99299876
  H     47.45273341     17.10621770      3.06456786
  O     22.11891786     11.61309521     27.41522900
  H     21.16371731     11.70427679     27.44485744
  H     22.35784081     10.95581200     26.75758579
  O     46.51005881     28.41967033     24.29240905
  H     46.24619767     27.87881531     23.54444305
  H     47.42444571     28.69146760     24.18459974
  O      9.26423907     15.87366210     27.46218420
  H      9.33652552     15.97026979     28.41457153
  H      9.76806785     16.56752323     27.03054395
  O     16.76072386     26.99295132     24.37026839
  H     15.98418945     27.27167065     24.86109407
  H     17.54117821     27.09609571     24.91967920
  O     30.79080174     46.01888192     14.33638795
  H     30.25118773     46.49075079     13.69782981
  H     31.39313832     46.63283151     14.76283437
  O      5.60605401     15.40920620     11.06713960
  H      5.09568247     15.98079140     10.48885657
  H      6.52867582     15.42703062     10.80246756
  O     33.62478434     31.45877891     17.16478259
  H     33.15339380     32.08607402     16.61170773
  H     34.12423755     30.85484158     16.61034034
  O     24.23290068     15.56149013      4.68184567
  H     24.92971955     16.22144260      4.70434474
  H     23.57240294     15.81485968      4.03288756
  O     17.23707674     11.08786560     28.80118080
  H     16.73062418     10.91951654     28.00320561
  H     18.09596744     10.66483091     28.73083586
  O     33.68539765     26.59293012     11.08815548
  H     32.92075104     27.15766561     11.22228002
  H     33.41613760     25.67262586     11.13440588
  O     23.94853877      4.13553118      2.49153828
  H     24.67210692      4.74580126      2.33147714
  H     23.13526941      4.50286019      2.13761407
  O     35.53248980     24.88044837      6.25512919
  H     35.76606455     24.39140144      5.46274296
  H     34.83525857     25.50785858      6.05061748
  O     41.85304751      2.95947679     24.88240546
  H     41.84761983      2.15532212     24.35809084
  H     42.58974561      2.93602523     25.49748751
  O     28.10875010     42.66538025     16.17616892
  H     28.92765383     42.25936298     16.46967643
  H     28.30757264     43.43622063     15.63962934
  O     24.16359385     35.91674528     22.14326630
  H     24.40130730     36.06145409     23.06204357
  H     24.92402448     36.09190269     21.58410162
  O     24.81149666     25.36354439     19.93502011
  H     24.79182935     25.94090865     20.70174282
  H     25.40572036     25.72770472     19.27480389
  O     43.57983409     39.50464798     11.38030768
  H     43.58753847     38.98091244     12.18482102
  H     44.24232914     39.16810984     10.77248994
  O     41.60150580     19.32375848      5.98224169
  H     41.00828667     18.82293157      6.54692165
  H     42.50865319     19.17620652      6.25957189
  O      0.41259010     16.98200215     29.40639959
  H      0.57740487     17.46968363     28.59608924
  H      0.35252946     16.04433229     29.20950378
  O     48.17631043     33.64032822      6.11064176
  H     48.89796595     34.24648496      5.92791976
  H     47.55781558     34.05234267      6.71834911
  O      4.87890635     31.11493620     23.86046428
  H      5.53924880     31.53908673     24.41331524
  H      4.20165376     30.72097379     24.41519174
  O      8.32632683     10.33675971     18.95058081
  H      9.28127431     10.29535201     18.86135798
  H      8.07662489     10.08518119     19.84274514
  O     48.84569373     49.04620904     20.24853062
  H     48.10369185     48.65854732     20.71837273
  H     48.56044196     49.32898899     19.37659776
  O     36.05171793     18.03506808     29.68880121
  H     35.88175502     17.13400450     29.97304942
  H     35.22134154     18.51224781     29.62266079
  O     16.44181262     29.18138056     16.70025713
  H     16.09566135     28.28658938     16.73384354
  H     17.35838003     29.15992746     16.41557494
  O     45.31015345     17.52608816      8.34641784
  H     45.80338040     18.34958438      8.35987684
  H     44.67708124     17.54348002      7.62494913
  O      3.48192673      6.38709991      7.36872547
  H      3.52983060      5.43634381      7.24475748
  H      3.56597069      6.59314053      8.30257978
  O     15.86076205     37.43733687     20.88177319
  H     16.34313997     36.65544966     20.60327016
  H     16.39640139     38.21794703     20.72259319
  O     36.43693519     27.08882626     14.75311670
  H     36.54661190     27.81696406     15.36906018
  H     35.56307999     26.70638698     14.86136311
  O     12.58872726      0.11804790     14.73062549
  H     11.66806623     -0.09200939     14.90342370
  H     12.64126974      0.91861974     14.20344050
  O      5.42479634     39.01775320     17.23741192
  H      6.06736924     39.32735938     16.59488248
  H      4.71688076     38.55362663     16.78459620
  O     19.82706253     16.19258097     16.15514324
  H     19.69198373     17.10594881     16.41803659
  H     19.51024253     15.60929026     16.84868275
  O     42.90309455     30.49045028      9.14584413
  H     42.62253725     31.33045324      9.51636084
  H     43.15335312     30.61301740      8.22717773
  O     43.60304768     35.69745773      7.06462956
  H     44.37795145     35.28622473      6.67474295
  H     42.88354492     35.69228490      6.42910692
  O     46.02402257      8.08046252     25.30678339
  H     45.78227986      8.34529963     26.19730109
  H     46.65185059      7.35535421     25.34740252
  O     46.86863321     16.03113452     17.84632334
  H     47.04401390     16.78293515     18.41696984
  H     46.70255283     15.25298316     18.38344323
  O     22.13207832     22.74385665      9.33085859
  H     22.81760663     23.12933219      9.88136704
  H     21.44836035     22.36540331      9.88844519
  O     46.32655039     17.69285088     23.07794915
  H     46.51938836     16.99238432     22.45044606
  H     46.13332630     18.50439692     22.60291496
  O     45.66011134     49.64169783     25.94327250
  H     44.76739171     49.98069688     26.04191985
  H     45.83148211     48.98728636     26.62443158
  O     24.33085316     39.38060364      9.07857503
  H     23.79315139     39.95692395      9.62660030
  H     24.88039320     38.82721622      9.63836795
  O      7.25650918      8.89133972      9.25446750
  H      6.53588141      8.89197103      8.62020003
  H      8.07930440      8.68614375      8.80446455
  O     12.95541035     43.08737370     25.16372524
  H     12.44694736     42.49593332     25.72342485
  H     13.47009691     43.68400312     25.71211477
  O      6.14323401     19.91293991     13.04896334
  H      5.60826430     20.40264735     12.42000067
  H      6.34326479     19.04457881     12.69184053
  O      3.04653624     29.98921036      5.93366798
  H      3.37642087     29.23441971      6.42668645
  H      2.97729616     30.74798967      6.51767121
  O     48.98198621      2.56450913     -0.16169786
  H     48.89325189      1.61276933     -0.25067869
  H     49.59524067      2.76408449      0.54942003
  O     20.09674029     27.08787902      2.27607997
  H     20.95487352     27.51231142      2.20491470
  H     20.12662495     26.23042656      1.84540354
  O     28.28797824      5.10984514     17.06862116
  H     27.62357901      5.26130275     17.74481214
  H     29.10589799      4.82326551     17.48151269
  O     14.90729361     46.86958941     26.51744500
  H     14.95274997     46.29034309     25.75324122
  H     14.24971187     47.55190357     26.36371263
  O     42.89760555      8.04598053     27.73987169
  H     43.77682056      8.08384398     27.35627381
  H     42.26262698      7.80219117     27.06239920
  O     46.33811304     27.99483514      9.72117952
  H     46.38350454     27.62794750      8.83521503
  H     46.56727559     27.31676548     10.36094985
  O     21.51262137     44.52656729      0.84980854
  H     21.11559865     45.14046557      1.47198365
  H     21.05463149     44.58246082      0.00795275
  O      5.39938998     22.87996660     10.91605160
  H      5.00475998     23.73889996     10.74841915
  H      5.97445438     22.93564268     11.68273349
  O      6.86179812     27.61388892     16.78611923
  H      7.67601247     27.19697428     17.07738745
  H      6.92826201     28.56424697     16.90444982
  O      5.70396916     13.27008849     18.24721469
  H      5.32053121     14.08218270     17.90798271
  H      6.30417237     12.90204902     17.59460220
  O     30.45029773     16.79267715      0.09270771
  H     30.36594702     17.59803156      0.60835220
  H     30.47465232     16.03561111      0.68250247
  O      6.24135745     37.28905745      3.22882865
  H      5.81395089     37.06396805      2.39921525
  H      6.02570284     38.19417241      3.46517585
  O     40.20303161     17.98973930     28.00580316
  H     41.06433894     18.21738690     27.64813537
  H     40.03873950     17.05311051     27.87414216
  O      4.84462459     10.01331976     16.70407432
  H      5.31988790      9.19458184     16.86342617
  H      5.25325529     10.72360547     17.20418947
  O     17.13854364     34.15762764     17.95052895
  H     17.68760219     33.79591835     18.65002956
  H     17.18686671     33.58883765     17.17868516
  O     32.09306126     14.24507154     20.99397576
  H     32.37046296     14.55540477     21.85904315
  H     31.19023598     13.92250992     21.04357938
  O     35.15247055     30.31837900     19.42093845
  H     36.05708949     30.48423639     19.69617635
  H     34.79889288     31.10175501     18.99326467
  O     28.42137805     33.79169115     27.94599714
  H     28.30395602     34.67581489     27.59083902
  H     27.76214818     33.62877205     28.62457900
  O     24.73233639     11.91242420     30.03996590
  H     23.98219882     11.51395238     30.48730674
  H     25.43782048     12.06651705     30.67253811
  O     29.83792570     22.24425821     14.14069404
  H     30.40259162     22.63698672     14.81040795
  H     29.47657031     21.41823545     14.47040403
  O      9.24603799      8.20268855      4.05599624
  H      9.37324396      8.95744320      4.63544776
  H      9.06448166      7.42108767      4.58300418
  O      0.41245450     23.02552021     28.76676950
  H      0.34274945     22.36029650     29.45540484
  H     -0.42788080     23.10213385     28.30898469
  O     14.32023854     33.76444228      6.33861471
  H     13.57314050     33.66585343      6.93336236
  H     15.08852885     34.05618601      6.83481588
  O      3.96397073     41.23995781     28.04170372
  H      4.23059101     42.16131122     28.00143571
  H      4.51447651     40.77446260     28.67562611
  O     25.38397330     46.15974149     18.20346942
  H     25.49570724     45.22921369     18.41139618
  H     25.21049033     46.64984620     19.01050166
  O      4.93983442     15.07883951      8.68870464
  H      4.11630975     14.59967591      8.57119132
  H      5.45103804     15.04134447      7.87699965
  O     16.67266318      3.86251150     15.34366747
  H     17.01339665      4.27785042     16.13927684
  H     15.74923627      4.09868134     15.22918357
  O     13.60463562     17.36228408     10.24566052
  H     14.45872677     17.64191496     10.58320294
  H     12.94741386     17.42865011     10.94226307